12
Properties=species:S:1:pos:R:3:molID:I:1:momenta:R:3:force_mace:R:3:forces_xtb:R:3 Nmols=1 Comp=DMC(1) energy_mace=-589.5321922511038 energy_xtb=-589.690285210191 pbc="F F F"
C       -0.06354920       0.02615914       0.03273994        0       0.17844136      -0.34376020       1.07719402      -0.44020762      -1.55317302      -2.43683080      -1.10455177      -1.74926628      -2.56666537
O       -1.09745824      -0.56171083      -0.33384407        0      -0.37132631       0.01130763       0.61994678       1.00412678       1.16327486       3.48718566       1.82972637       1.39048314       2.85535072
O        0.59339279       0.04178514       1.16893291        0      -0.06068457      -0.59711980      -0.95669715      -0.67741284       0.34704904       0.63350277      -0.82868401       0.42618703       0.49168190
O        0.70731479       0.58054012      -0.92796504        0      -0.60590825       0.76431855      -0.46687405      -0.44507609      -0.34391716      -0.30357823      -0.37214189      -0.70823382      -0.28816867
C       -0.18480919      -0.38314587       2.27627182        0      -0.04014364      -0.06563936      -0.56096274      -0.67412129       1.05602093       1.05859174      -0.57908517       1.05535926       1.25900425
C        0.11790480       0.31317315      -2.18905210        0       0.29358387      -0.58416592       0.23783068      -1.61863351       1.42952334      -1.63228818      -1.94283614       1.45787826      -1.67285780
H        0.50081283      -0.52887988       3.16355896        0       0.01339961       0.14254610       0.22731550      -0.56356707      -0.09095291      -1.00979303      -0.82240538      -0.17216270      -1.20740440
H       -0.99130619       0.37122315       2.57026887        0      -0.01864405       0.28794111      -0.37432648       1.05367243      -0.20937260      -0.22831534       1.19572385      -0.26178667      -0.29329153
H       -0.79898220      -1.19689691       1.93909299        0       0.07867573      -0.13808167       0.14732151      -0.07619535      -1.25313794       0.51791810       0.14296195      -1.04899651       0.29163523
H        0.82173383       0.39293513      -3.04121518        0       0.06493475       0.18520010      -0.03584277       0.02059445      -0.24063992       0.77617021      -0.07666139      -0.15544510       0.93177213
H       -0.51975018      -0.63449883      -2.23208618        0       0.25642326       0.05312722       0.01555753       1.36419421       0.58350781      -0.99204347       1.35194044       0.97978779       0.12088243
H       -0.68493521       1.15580308      -2.35394812        0       0.21124824       0.28432625       0.06953715       1.05262589      -0.88818242       0.12948059       1.20601314      -1.21380439       0.07806111
12
Properties=species:S:1:pos:R:3:molID:I:1:momenta:R:3:force_mace:R:3:forces_xtb:R:3 Nmols=1 Comp=DMC(1) energy_mace=-589.9478525199588 energy_xtb=-589.8275256014487 pbc="F F F"
C       -0.05856440      -0.03402192      -0.00037787        0       0.28397701      -0.82311611      -1.22431151       2.05023340       1.13477347      -0.29077389       1.57576364       0.98222065      -0.40080141
O       -1.09592615      -0.53939034      -0.20025685        0      -0.51894403      -0.28148691       2.93005273      -2.82983838      -1.45537761      -0.31818376      -2.27532536      -1.15330216      -0.26370811
O        0.58252248      -0.00383651       1.14185868        0      -0.71057612      -1.02613523       0.31192020       0.96182602      -0.26496565       0.28537097       0.88683869      -0.01568339       0.46189790
O        0.65510096       0.60609924      -0.94221955        0      -0.56805707       0.48346288       0.10704018       0.19169867      -0.49563153       0.20491045       0.30541301      -0.77193816       0.31924411
C       -0.22342543      -0.37870431       2.25739422        0      -0.44022049       0.08964392      -0.32840942       0.05582188       1.24948122      -0.39299076      -0.04301401       1.16527389      -0.55665635
C        0.15377094       0.35760884      -2.22540506        0       0.74860211       1.20021560      -1.27585844       0.39778922       0.24178752      -1.93503592       0.19422417       0.21121207      -1.96501841
H        0.42485227      -0.43821139       3.08847459        0       0.38857132       0.06809914       0.02421413       0.67934031      -0.03429148       0.95558181       0.84475485       0.08078737       0.93736913
H       -0.86270558       0.52691958       2.35899207        0      -0.06658540       0.20332033      -0.01638744      -0.66653549      -0.77259370       0.61358359      -0.48328977      -1.23416571       0.39795751
H       -0.63270700      -1.36904395       2.10557322        0       0.11191033       0.06624854      -0.04954405      -0.58805026      -0.05383188      -0.18602452      -0.77566002       0.20611419      -0.16242303
H        0.95004253       0.46653920      -2.94925062        0       0.43083612       0.15304929      -0.01337648       0.56142793       0.47857417       0.04223016       0.92979001       0.69879576       0.00544516
H       -0.07323589      -0.72023183      -2.49659955        0       0.39191207      -0.02300182      -0.08817482      -0.65400684       0.90062431       0.95369776      -0.95597308       1.20523308       1.11780714
H       -0.54458018       1.19893153      -2.47523815        0      -0.05142584      -0.11029963      -0.37716508      -0.15970645      -0.92854885       0.06763410      -0.20352214      -1.37454759       0.10888635
12
Properties=species:S:1:pos:R:3:molID:I:1:momenta:R:3:force_mace:R:3:forces_xtb:R:3 Nmols=1 Comp=DMC(1) energy_mace=-589.6184058994561 energy_xtb=-589.5323491164402 pbc="F F F"
C       -0.04129234      -0.08467411      -0.06891987        0      -0.41476657      -0.45185827      -0.23411241      -2.45909351      -0.42017462       2.69909746      -2.51552554      -0.45618887       2.42022199
O       -1.16146964      -0.57761086      -0.07934068        0      -0.86114631      -0.95229011       0.67509892       1.09441674       0.41765460      -1.87014141       1.31900928       0.61877375      -1.82200541
O        0.57582722      -0.08563420       1.13331973        0       0.07535189      -1.36010467      -0.40469990       1.14441555       0.57544167      -0.69365423       0.95870990       1.06137803      -0.58727122
O        0.63314398       0.62018803      -0.93158255        0      -0.22543439       0.51982760      -0.08479039      -0.55044704      -0.12542838      -0.92065561      -0.56344278      -0.31657337      -0.68296870
C       -0.22145683      -0.33266822       2.24447076        0      -0.14503598       0.18518688       0.16316310      -2.61608972      -0.29720575      -0.39218411      -2.60670240      -0.63487689      -0.54553983
C        0.27539021       0.47624684      -2.34057943        0       2.29130832       1.52639365      -1.01747546      -0.45391042      -1.14295641       1.37787605      -0.71943919      -1.21165073       1.30762344
H        0.40523261      -0.35939746       3.04720941        0      -0.21412797       0.07318800       0.16014533       1.88282354      -0.35815746       2.03276616       1.91329317      -0.62804794       2.06711773
H       -0.98832028       0.39673511       2.55809744        0      -0.23161002      -0.11330157       0.21767447       0.29074035       0.52613213      -0.64853940       0.23502361       0.60835062      -0.95920482
H       -0.84326950      -1.23937387       2.11778845        0      -0.21242996       0.26203887       0.04821985       0.43802615      -0.27088206      -0.10313549       0.61250971      -0.08418225       0.04344999
H        1.18204965       0.97092808      -2.70269980        0      -0.02671247       0.65489587       0.23717710      -0.62410639      -0.51811286      -1.15149162      -0.62680474      -0.74306461      -1.03154798
H        0.00340283      -0.63525379      -2.42839283        0       0.04082876      -0.00306797      -0.03043673       1.09969968       1.01560359      -0.62475853       1.26207716       1.20046899      -0.64612034
H       -0.70329189       0.91159029      -2.63082918        0      -0.07622532      -0.34090827       0.27003611       0.75352507       0.59808555       0.29482072       0.73129182       0.58561326       0.43624516
12
Properties=species:S:1:pos:R:3:molID:I:1:momenta:R:3:force_mace:R:3:forces_xtb:R:3 Nmols=1 Comp=DMC(1) energy_mace=-589.7948785082273 energy_xtb=-589.6498552715915 pbc="F F F"
C       -0.12555580      -0.10943293      -0.00298084        0      -0.77447703       0.28398192       1.16020652       1.47499510       1.05072030      -1.34181783       1.21086879       0.87674988      -1.18839415
O       -1.19784604      -0.60826386      -0.11803885        0      -0.61181238       0.23720320      -1.55325779      -0.47708124      -0.11646798      -0.69360154      -0.29176070       0.13016546      -0.78964949
O        0.60089603      -0.15854669       1.11115781        0       0.29913677      -1.27976528      -0.14154645      -1.55331995       0.06715048       1.07335066      -1.30654953       0.58060292       0.74151503
O        0.58445956       0.65998974      -0.93667335        0      -1.03212821       0.53293162       0.27936270       0.30609217      -0.83632701       1.75133056       0.50907454      -1.24475804       1.90340671
C       -0.27191626      -0.33344493       2.28313660        0      -0.15450079      -0.39077238       0.63424549       0.15307068      -2.02612242      -1.57478917      -0.18235961      -2.43853098      -1.60737152
C        0.42767235       0.56269902      -2.32315470        0       1.10270268       0.48763450       0.67102659      -1.31278960      -1.26431311      -0.85368282      -1.48934357      -1.24939789      -0.77444904
H        0.41750560      -0.42053197       3.06784815        0       0.00735309      -0.21004000      -0.24444008       0.67723595       0.11281941       1.14381757       0.69591265       0.07316554       1.19636579
H       -0.99415016       0.44952515       2.40243160        0       0.10233630       0.31936659      -0.36635428      -0.10657808       0.59000209      -0.05843483      -0.10165108       0.43102504      -0.12181022
H       -0.84445340      -1.35205929       2.18491764        0       0.17923608      -0.24628715       0.06395480       0.76375861       1.31540783      -0.10666629       0.87485221       1.66318782       0.05787325
H        1.03520114       1.30483104      -2.82063034        0      -0.17633673       0.16480377      -0.18281477       0.04369728       0.35183992       0.28965087       0.05604761       0.48355211       0.32024293
H        0.83529080      -0.45386371      -2.79263349        0       0.94406740       0.26483884      -0.30430202      -1.15567597       1.44749778       1.13847127      -1.36270112       1.57899978       1.13271854
H       -0.68842798       0.81363051      -2.44149027        0       0.11442283      -0.16389563      -0.01608071       1.18659504      -0.69220728      -0.76762843       1.38760981      -0.88476163      -0.87044782
12
Properties=species:S:1:pos:R:3:molID:I:1:momenta:R:3:force_mace:R:3:forces_xtb:R:3 Nmols=1 Comp=DMC(1) energy_mace=-589.8729174150877 energy_xtb=-589.7105878637924 pbc="F F F"
C       -0.14058248      -0.06328500      -0.00446282        0       0.00520070       0.21556343      -0.99728644      -1.24457423      -1.98223584      -0.81614363      -1.65191734      -2.00950409      -0.60234515
O       -1.22396998      -0.61124570      -0.20079774        0       0.04834713      -0.15325707      -0.79793946       1.88375507       1.15425015       0.54808327       1.96018237       1.23718157       0.39927137
O        0.59359914      -0.23478272       1.12927015        0      -0.40436366      -0.91511746       0.37821874      -0.42679805       0.05324075      -0.91786099      -0.25920466       0.65752253      -0.84318839
O        0.50734873       0.69538941      -0.86797305        0      -1.24181402       0.97000517       1.86233776       0.40557037       0.46631978      -0.89476751       0.81422727       0.00960962      -0.57194521
C       -0.24494967      -0.35529733       2.29020948        0       1.03588984      -0.41988586      -0.18935693       0.56698156      -1.07797843      -0.97444409       0.42814244      -1.46229395      -1.00118233
C        0.48935583       0.57183824      -2.32042524        0       0.68163923       0.42300502      -0.17747064       0.47587059       0.32956905       0.26344002       0.15463869       0.45700413       0.20681656
H        0.39771875      -0.42045687       3.14216044        0      -0.31204344       0.18570311       0.03954433       0.38142107       0.01953003       0.48877735       0.52606509       0.03079375       0.44482111
H       -0.74416337       0.59427196       2.26705161        0       0.18662865       0.12839187       0.05358870      -1.28748659       0.23075223       0.94289170      -1.22478442      -0.18483019       0.62376555
H       -0.76398967      -1.36388083       2.18210991        0      -0.32711964       0.07192289      -0.04539471      -0.12000204       1.19093656       0.16366635      -0.19782700       1.62170769       0.27396785
H        0.91506270       1.54823124      -2.65042571        0      -0.25118715       0.27577194       0.22215414      -0.72707409      -0.43005351       0.19548410      -0.78652393      -0.39850682       0.14647477
H        1.28675006      -0.14079216      -2.65014691        0       0.47963147      -0.24591317       0.12133075      -0.89784043      -0.04210236       0.43155286      -1.02690939      -0.04259359       0.40664960
H       -0.54473448       0.37462698      -2.73429867        0       0.09919088      -0.53618986      -0.46972623       0.99017676       0.08777159       0.56932058       1.26391087       0.08390935       0.51689429
12
Properties=species:S:1:pos:R:3:molID:I:1:momenta:R:3:force_mace:R:3:forces_xtb:R:3 Nmols=1 Comp=DMC(1) energy_mace=-589.5341538024753 energy_xtb=-589.1792077937029 pbc="F F F"
C       -0.16632159      -0.09782457      -0.06990387        0       0.23640545      -0.19646137      -0.32265357       2.26678743       0.42179535       2.17461584       2.11163027       0.31097165       2.32741563
O       -1.20764859      -0.58812747      -0.23452677        0      -0.09726434       0.18085693      -0.54654025      -2.62536288      -1.37070137      -0.73288960      -2.57966164      -1.35309758      -0.74663585
O        0.57637260      -0.28938227       1.10632899        0       0.09270834      -0.67704896      -0.67660274       0.03870176       0.13576325      -0.79501941      -0.04280723       0.78038189      -0.94935919
O        0.46075834       0.75790349      -0.80875542        0      -0.73859576       1.19315223      -0.24746062       0.65766716       0.83678173      -1.29447356       0.90502870       0.27040253      -1.10494486
C       -0.20699346      -0.39602975       2.24902188        0      -0.41341237      -0.21212458      -0.32889839      -0.98676043       1.04623825       1.64250913      -0.96648462       0.77441434       1.95710003
C        0.57628495       0.59559085      -2.25444890        0       1.02199221       0.30868625       2.01302875      -1.30305493       1.53377165       1.16085010      -1.54245845       1.82607010       1.09630339
H        0.33648166      -0.44572907       3.24022416        0       0.18779962      -0.27650633      -0.20259338       0.27873379      -0.55295831      -1.21263111       0.01471669      -0.79039882      -1.56855696
H       -0.82778780       0.47677757       2.44401880        0       0.12555605      -0.27306225       0.06588752       0.20894233       0.86560266      -0.20668794       0.22130695       1.30277957      -0.39293993
H       -1.04093750      -1.05824269       2.12253952        0      -0.34811277       0.09667827      -0.09674169      -0.02891332      -1.38983932      -0.04772129       0.18628305      -1.62040850       0.09615526
H        0.41156814       1.65982878      -2.59406730        0      -0.48859294       0.14114652      -0.00309589       0.95573830      -1.01217260       0.00638419       1.40884605      -1.13676121      -0.10052255
H        1.38814252      -0.06478364      -2.34751267        0       0.55925249       0.06681354       0.11675562       1.53023010      -0.05968653      -0.66185739       1.81257307       0.31401119      -0.75456235
H       -0.19673114       0.06750173      -2.75333356        0      -0.13773597      -0.35213024       0.22891464      -0.99270932      -0.45459476      -0.03307894      -1.52897284      -0.67836516       0.14054737
12
Properties=species:S:1:pos:R:3:molID:I:1:momenta:R:3:force_mace:R:3:forces_xtb:R:3 Nmols=1 Comp=DMC(1) energy_mace=-589.3120364677881 energy_xtb=-588.9794838601638 pbc="F F F"
C       -0.11532007      -0.10093246      -0.02528605        0       0.47829410      -0.05410951       0.73205664      -3.74675338      -0.19674297      -2.14091655      -4.04520879      -0.64324191      -2.31691927
O       -1.23858670      -0.59019592      -0.29961829        0      -0.23960072      -0.06129854      -1.18219862       3.12400817       1.09533113       0.82319185       3.38640989       1.24297681       0.66082711
O        0.55507562      -0.33398389       1.05688037        0      -1.15130834      -0.60028453      -0.69349578      -0.38903720       0.39085709       0.92358936      -0.44819373       0.83574152       0.86828162
O        0.46798290       0.82898804      -0.82280027        0       1.14902103       1.10510725       1.04214544      -0.02897503       0.42486257       4.22750863       0.46968808       0.08519721       4.18543238
C       -0.30010206      -0.39500647       2.25030732        0      -0.79682520       0.14927723      -0.02196832       3.18325912      -0.44822635      -0.22432803       3.03357762      -0.43630619       0.09184224
C        0.61090675       0.58330586      -2.12467541        0       0.08411814      -0.71214040       1.03732259      -1.18151488       0.56694206      -1.88262962      -1.42356495       0.70358332      -2.19340839
H        0.48959978      -0.91973852       2.85201814        0      -0.20890563      -0.33333399      -0.29811375      -0.84932285       0.91732101       1.00569617      -0.80835953       1.12581204       0.75017540
H       -0.59398769       0.66017249       2.51164712        0       0.33484828      -0.05996086      -0.06301031       0.04946882      -1.16878414      -0.01694862       0.10229186      -1.49952984      -0.00368917
H       -1.00062019      -1.17705798       2.11291446        0       0.18786158      -0.10021186       0.04756805      -1.41124008      -0.03299776      -0.20651684      -1.45035258       0.03369017      -0.28434029
H        0.46731538       1.49213995      -2.67534313        0       0.09516683       0.02720330      -0.52474558      -0.79159794       0.54606414      -0.38756820      -1.56500410       0.96797034      -0.49478825
H        1.60102842       0.52382674      -2.38670565        0      -0.29769909       0.89266968      -0.10243051       2.44358215      -1.07984777      -0.55184009       2.85930521      -1.80254602      -0.27022626
H       -0.07904685      -0.19436558      -2.37190623        0       0.36502903      -0.25291778       0.02687014      -0.40187690      -1.01477903      -1.56923806      -0.11058898      -0.61334745      -0.99318710
12
Properties=species:S:1:pos:R:3:molID:I:1:momenta:R:3:force_mace:R:3:forces_xtb:R:3 Nmols=1 Comp=DMC(1) energy_mace=-589.1389533091445 energy_xtb=-587.82416947073 pbc="F F F"
C       -0.18469922      -0.12564070      -0.05618169        0      -0.50952384       1.04498064      -0.32860655       4.36124466       3.77393477       1.43934991       4.30187000       3.82189051       0.98487187
O       -1.18465116      -0.56471646      -0.37993437        0       0.01887916      -0.02795553      -1.83745483      -4.29681732      -2.12380493      -1.71363500      -4.29332553      -2.12020544      -1.80566847
O        0.47198480      -0.36674123       1.06853462        0      -1.23532103      -0.23767720       1.02740745       0.60186937      -0.26119462       0.64504476       0.71934052       0.35398226       0.75257622
O        0.52151010       0.89759994      -0.71643449        0       0.31559486       0.31134636       1.61496632      -1.15879711      -2.61154880      -1.75818436      -1.13742441      -2.69727209      -0.86539603
C       -0.27763628      -0.44935659       2.23595153        0       0.42557219      -1.61259803       0.02545275      -1.18320836       0.49931727       2.59518044      -1.20658125       0.19808508       2.82639902
C        0.63295176       0.56701389      -2.13611876        0       0.86270856      -0.44965411      -0.34180086      -1.15064374      -1.03243633       2.06977928      -1.23420267      -1.37347526       1.32197086
H        0.27837518      -0.92886806       3.09198477        0      -0.25611668       0.03296204       0.40042067       0.13653282       0.08447526      -1.11220840      -0.00399592       0.11741329      -1.23277508
H       -0.53773868       0.58198979       2.70873912        0      -0.12224829      -0.09924987       0.09475094       0.35907009      -0.88401959      -1.12885411       0.29777560      -1.16210365      -1.20881253
H       -1.23648537      -1.02426534       2.14818199        0       0.04151737       0.52563574      -0.03744914       0.57582972       0.26330164      -0.52293400       0.68940090       0.47441527      -0.31826853
H        0.42661721       1.28028202      -2.81730742        0       0.02628796       0.22832936      -0.37995505       0.23635852       1.58093378      -0.36580706      -4.90352710       3.41270553      -2.01263862
H        1.50702359       0.95803898      -2.40913593        0      -0.34910507       0.17543963      -0.14416798       1.65594072       1.09999397      -1.22772038       6.45777465      -0.95619785       0.33192163
H        0.30434854      -0.36661659      -2.60695721        0       0.78175480       0.10844097      -0.09356371      -0.13737937      -0.38895242       1.07998893       0.31289521      -0.06923765       1.22581965
12
Properties=species:S:1:pos:R:3:molID:I:1:momenta:R:3:force_mace:R:3:forces_xtb:R:3 Nmols=1 Comp=DMC(1) energy_mace=-589.2010245518579 energy_xtb=-579.2737912622886 pbc="F F F"
C       -0.16211491      -0.03965459      -0.03751526        0      -0.38395617       0.05017639      -0.40814510      -3.74024911      -3.89308261      -1.00476662      -4.35862928      -3.37771178      -1.61742413
O       -1.20045509      -0.60364020      -0.52123603        0       0.54689373      -0.23715537      -2.11770503       3.28719676       1.86185615       2.12415020       3.27165461       1.51609235       2.25657849
O        0.45019683      -0.40500415       1.11928620        0       0.43905036      -0.66177052       0.59183127       0.58753835      -0.37330736      -0.93352285       0.78016680       0.14401719      -0.42020868
O        0.48262100       0.84589915      -0.69871399        0      -0.61895078      -1.43831018      -1.01772869       1.57599066       1.50789533      -1.86516236       2.61907138       1.38586398      -0.03426368
C       -0.28240808      -0.50331559       2.32301568        0      -0.57875565       0.15848745       1.23795039      -2.49053650       2.45564797      -0.66240249      -2.68395920       2.25203282      -0.58812459
C        0.70197338       0.64421020      -2.14026687        0       1.15288703       1.03282004       0.69862389       0.15382971      -4.56764227       3.16457440      -1.69172186     -11.64391394       4.55765425
H        0.18518776      -0.91242916       3.22471089        0      -0.08013084      -0.13863366       0.02032811       0.10591007      -0.51710501      -0.74334753      -0.01571324      -0.58415925      -1.09069080
H       -0.46937290       0.57297560       2.55925889        0       0.01737099       0.27702607       0.08231099       0.19617349      -0.17244770       0.75757060       0.22743946      -0.13746869       0.57518873
H       -1.35573044      -0.77188329       2.03355100        0       0.10484941      -0.23209113       0.14759014       0.98834745      -0.85589245       0.71548073       1.30541388      -0.83372593       0.77245977
H        0.68172843       1.49916078      -2.58110426        0      -0.87045263       0.81318656       0.48599628      -0.88758891       2.93814522      -1.83471615     -26.63138162      12.48108134       5.67500496
H        1.13166807       1.37848459      -2.76214789        0       0.11605687      -0.03519630      -0.29236023       0.35608871      -1.04408614       0.38874800      27.48001344      -4.81148239     -10.15510603
H        0.77995609      -0.54736440      -2.36907424        0       0.15513767       0.41146065       0.57130797      -0.13270069       2.66001888      -0.10660594      -0.30235438       3.60937429       0.06893171
12
Properties=species:S:1:pos:R:3:molID:I:1:momenta:R:3:force_mace:R:3:forces_xtb:R:3 Nmols=1 Comp=DMC(1) energy_mace=-588.3124421034881 energy_xtb=-582.7664326688318 pbc="F F F"
C       -0.24870774      -0.11642346      -0.06388320        0       0.44768973      -1.24916211      -0.34046641       5.41657245       0.63726667       1.62298560       5.38134488       1.95438851       0.92299129
O       -1.11978634      -0.63186308      -0.60129282        0      -0.40220684      -1.31530787      -1.36430713      -3.63843154      -2.16980615      -0.66977665      -4.28012996      -3.13752692      -0.75612555
O        0.48267460      -0.44159215       1.13799453        0      -0.11498964      -0.41552132       0.29846652      -3.61355007       1.12357147      -0.08711451      -3.23462061       1.35921255      -0.40720880
O        0.46697735       0.81064525      -0.74551656        0       0.71201512       0.42874522       0.29706167       0.84521999       1.42265464       3.03888420       2.04215104       1.15414301       6.97347092
C       -0.34702182      -0.41649334       2.37587903        0      -0.34664451       0.55474636       0.18347327       0.51844939      -3.58382818      -1.81143663       0.19495948      -3.71684991      -1.60759539
C        0.76959920       0.79360970      -2.04038758        0       0.35722187       1.33201988       1.39830432       1.20120363      -6.56556081      -1.38870750       4.01502758     -10.15451295      -2.35715250
H        0.09526389      -1.17397434       3.02380307        0       0.07382221      -0.09063052      -0.19180648       0.78525033       0.68573469       0.11489652       1.18055098       0.55661263       0.42465490
H       -0.38600066       0.53801445       2.81522007        0      -0.07114012       0.07535438       0.30750744      -0.15352668       0.98194793       0.12019465      -0.38949537       0.84825946       0.16079747
H       -1.28336051      -1.06771301       2.26393444        0      -0.06948169       0.14415906       0.25309070       0.41671970       1.56727247      -0.47062489       0.25301710       1.89994854      -0.66883308
H        0.29671054       1.52598203      -2.39136181        0      -0.20217005      -0.34659599      -0.20828738      -3.14071969       4.25605955      -2.03519398     -12.08037718       5.71589133      -1.18239504
H        0.95679767       1.50134632      -2.85109346        0      -0.21256614       0.63730258      -0.19360858       0.89331366      -0.62801810       0.86411158       7.38994716       0.33203457      -2.05092247
H        0.70404014      -0.38354950      -2.47243303        0      -0.17154994       0.24489033      -0.43942795       0.46949882       2.27270582       0.70178162      -0.47237511       3.18839918       0.54831824
12
Properties=species:S:1:pos:R:3:molID:I:1:momenta:R:3:force_mace:R:3:forces_xtb:R:3 Nmols=1 Comp=DMC(1) energy_mace=-589.4325963810472 energy_xtb=-585.7236132317234 pbc="F F F"
C       -0.14200224      -0.21598852      -0.09314349        0       0.71478286      -1.29649316      -0.68794274      -2.83694169       0.44232485      -1.03580424      -2.60619983       0.93468440      -1.24668834
O       -1.13939648      -0.74429672      -0.63791204        0       1.12862257      -1.26929767       0.61272931       3.93738477       1.59115434       1.99969514       3.61082478       1.36111277       2.02730423
O        0.37866958      -0.42276337       1.14680941        0      -2.06833293       0.17326166      -0.12295087       0.36548038      -0.39495591      -2.46189252       0.42460285       0.33684348      -2.34666331
O        0.53859511       0.87064361      -0.64443254        0       1.28170633       0.94394475       1.86917828      -0.54413677      -2.34272622      -0.60508442      -0.86356420      -2.77792558       0.41672034
C       -0.33836998      -0.43312283       2.33465544        0       0.34961021      -0.66161644      -0.71319084      -1.50846195      -0.37467881      -0.30630837      -1.79267739      -0.74533007      -0.53483064
C        0.70555960       0.85867499      -2.07390535        0      -2.11823379       1.18645842      -1.61219116      -1.94848885      -4.90464465       2.10237388      -1.01459720      -6.48337792       1.21110790
H        0.29522822      -1.02392429       2.96959569        0       0.05267978       0.29535579       0.07536879      -0.40041698      -0.77994297       0.41014857      -0.56801707      -1.00774732       0.48091224
H       -0.31549836       0.52141790       2.77183259        0       0.14710425       0.25302347      -0.13166175      -0.09537783       1.49742117       0.57330368      -0.04864115       1.79704186       0.45892801
H       -1.45329591      -0.65992401       2.15592534        0      -0.28984613       0.38363621      -0.00585251       1.33819092      -0.29948183       0.30203071       1.62362818      -0.45559535       0.51618629
H        0.19155792       1.56179114      -2.60981786        0       0.38325317      -0.20824104       0.08377748      -0.09383762       0.85457796      -0.10713325      -8.45312439       0.03881193      -2.54339651
H        1.02381298       1.73052286      -2.29421338        0       0.21529888       0.38406435       0.78252055       1.52312725       4.20683353      -1.91951731       9.34764773       5.69567409       0.34937906
H        0.77337979      -0.10726975      -2.65684402        0       0.20335480      -0.18409633      -0.14978453       0.26347837       0.50411855       1.04818814       0.34011770       1.30580773       1.21104074
12
Properties=species:S:1:pos:R:3:molID:I:1:momenta:R:3:force_mace:R:3:forces_xtb:R:3 Nmols=1 Comp=DMC(1) energy_mace=-588.7833988578616 energy_xtb=-577.0567054541073 pbc="F F F"
C       -0.12245714      -0.25836893      -0.10183495        0       0.76593428       1.19269061       0.59376010       0.50030772       2.89463038      -0.43230223       0.13364666       3.15953800      -1.23160772
O       -1.01433550      -0.81924568      -0.59619895        0       1.18539086      -1.72935782       0.10403669      -2.03179824      -1.49042491      -1.96326857      -2.18588213      -1.45745316      -2.02832927
O        0.30088044      -0.43115445       1.07293564        0      -0.16644913      -0.53941984      -1.56853496       2.68324953      -1.36051381       2.33031278       3.45923829      -0.89054611       3.39974012
O        0.58440887       0.80766645      -0.57347177        0       0.64602115      -1.92440747      -0.49956263      -0.42741649       0.37727207      -3.60466844      -0.04821787       0.04886767      -2.26949742
C       -0.32248192      -0.40747215       2.33268191        0      -0.26310033       1.44819946       0.75180717      -1.97872510      -1.49723991      -0.85847466      -2.15955599      -1.94483356      -1.03831651
C        0.52614630       1.00178784      -2.09838664        0      -1.77386287       2.40428283       1.27156648      -0.87582546      -3.53890828       3.53463290      -4.49600935     -10.99750738       5.25763195
H        0.13747465      -1.13540279       3.02021790        0      -0.22336853      -0.35240210      -0.13987596      -0.01354138       0.27894386      -0.47012560      -0.17650750       0.38002009      -0.45125740
H       -0.26734447       0.57804560       2.61822711        0      -0.12370207      -0.19198305      -0.19355351       0.36589012       2.19799190       1.39446797       0.41796603       2.20895766       1.39806149
H       -1.42698639      -0.59472275       2.19174358        0      -0.25952213      -0.19324132       0.03850213       0.67361634      -0.31474402       0.22093665       0.75766316      -0.38719607       0.28744167
H        0.50965962       1.99139795      -2.62203030        0       0.19367627      -0.06639384       0.44380554      -5.86865717       1.10802320      -1.17843483     -36.80928324      20.19177120     -18.73556180
H        0.85107779       1.80721153      -2.44329474        0      -0.18572101      -0.17890619      -0.74038846       7.20433238       2.29214569       1.18557683      40.88784379     -10.25925908      15.64062598
H        0.96810109       0.14487568      -2.55826788        0       0.20470351       0.13093874      -0.06156260      -0.23143224      -0.94717617      -0.15865280       0.21909814      -0.05235927      -0.22893107
12
Properties=species:S:1:pos:R:3:molID:I:1:momenta:R:3:force_mace:R:3:forces_xtb:R:3 Nmols=1 Comp=DMC(1) energy_mace=-588.9803039515031 energy_xtb=-585.1131256670275 pbc="F F F"
C       -0.14721819      -0.15698006      -0.15666086        0      -1.05317893      -0.35919281      -1.63145819      -0.54210017      -4.17218541       1.42560074      -0.80971011      -3.14136590       0.93493902
O       -0.96889019      -0.93502001      -0.62013448        0       0.88633079      -0.66086315      -0.47916636       0.94796605       2.40877545       0.13384448       0.83905688       2.03183798      -0.04085504
O        0.37340635      -0.47344347       1.10437836        0       1.79467207      -0.25154073       1.62545120      -0.95333668       1.36912707      -0.24893470      -0.50121305       1.38193606      -0.07383142
O        0.60966916       0.75254627      -0.70068242        0       0.20905977      -0.36846036      -2.23958836       0.16748971       0.30169252       3.93226603       1.67221576       0.15807348       6.28026244
C       -0.37842066      -0.34212612       2.34574060        0       0.12999197       0.92337412       0.16109064       0.27459248      -1.30900110      -1.07404853       0.15703741      -1.37967482      -1.25256405
C        0.45573786       1.11045730      -1.95686647        0       0.34426732       1.05349384       1.17647599      -0.84065598      -0.32186049      -0.61670492      -2.46008883      -2.17833274      -2.36714940
H        0.09800330      -1.15115197       2.87764224        0       0.09319976       0.06436603       0.25938192       0.00967004       0.00020438       0.67901061       0.08523464      -0.04566908       0.81817007
H       -0.18072860       0.61507479       2.80485576        0      -0.09826213      -0.62080810      -0.03598870      -0.09981115       0.28267793      -0.16106232      -0.22117793       0.23408097      -0.03361960
H       -1.45124967      -0.63192275       2.26862560        0      -0.34709017       0.06156404       0.07572352       0.48852785       0.54610919      -0.27770984       0.61387349       0.61701124      -0.30792048
H        0.10877804       2.10683137      -2.03672005        0      -0.24821204       0.21635349       0.36730020       1.07509923      -0.82857600      -1.46675893      -6.31680159       1.10075962       0.85657014
H        0.91573160       1.79990984      -2.48731060        0      -1.07345471       0.03601343       0.90625453      -0.22541334       2.94273668      -0.38238722       8.57456989       2.61569502      -2.56862021
H        0.76705312       0.25525865      -2.46852676        0      -0.63732369      -0.09429980      -0.18547640      -0.30202804      -1.21970023      -1.94311539      -1.63299656      -1.39435182      -2.24538147
12
Properties=species:S:1:pos:R:3:molID:I:1:momenta:R:3:force_mace:R:3:forces_xtb:R:3 Nmols=1 Comp=DMC(1) energy_mace=-589.359611963846 energy_xtb=-585.5876349242183 pbc="F F F"
C       -0.08186639      -0.25261191      -0.16399146        0       2.82370319      -1.91847395       1.81555495      -0.35984286      -1.52884992       1.84864618      -0.29548996      -0.74313940       1.47121505
O       -0.92855401      -0.95208606      -0.66361177        0       0.24662636      -0.44157620      -0.98250972       1.07947205       1.28704144       0.62891037       0.72994773       0.95920873       0.60661711
O        0.41155624      -0.39727515       1.17103247        0      -0.30793850       2.25267345       0.04710837      -1.00743523       0.32486787      -1.02763883      -0.52868998       0.62273807      -0.77472211
O        0.66211100       0.68283061      -0.71025115        0       1.40953034      -0.70995051       1.21205474       0.75650244       0.10425014      -0.23256502       0.24914464       0.00040259       0.99190548
C       -0.40964403      -0.35566103       2.35532601        0       0.13462937      -0.40662918       0.20988012       0.11763366       2.28289682      -0.75667251       0.21154891       2.17934677      -0.97673934
C        0.39249856       1.16526861      -1.98817529        0      -1.92426578       1.64341593      -2.03728912      -1.47451000       3.23555774       0.30762553       1.03756431       0.99938877      -1.45707044
H       -0.06403812      -1.09617313       2.97821778        0      -0.41241033      -0.20240443       0.11843100       0.90891907      -1.69335011       1.04644492       0.83789577      -1.86686608       1.31904625
H       -0.32245493       0.61403306       2.97108427        0      -0.10610313      -0.23351142      -0.28392838       0.19094102      -0.73851117      -1.19616816       0.11319967      -0.81779648      -1.31553541
H       -1.43602597      -0.51869514       2.14026563        0      -0.17707029      -0.08522958      -0.55595864      -0.95048577      -0.12231757      -0.47690243      -0.96043949      -0.11783203      -0.39147066
H       -0.23932297       2.00411356      -1.97819757        0      -0.65567667      -0.13923811      -0.15902284      -0.56602509      -0.26231324       0.08709456      -7.64660968      -0.96541404       1.66965940
H        0.49945738       2.38461274      -2.15194438        0      -0.44651417      -0.67965889       0.45443888       0.81526108      -2.21521727       0.02707284       5.97288892      -0.22091957      -0.96999819
H        0.09657543       0.48521432      -2.75662530        0      -0.58451038       0.92058288       0.16124063       0.48956964      -0.67405472      -0.25584745       0.27903918      -0.02911733      -0.17290712
12
Properties=species:S:1:pos:R:3:molID:I:1:momenta:R:3:force_mace:R:3:forces_xtb:R:3 Nmols=1 Comp=DMC(1) energy_mace=-588.5429434821198 energy_xtb=-584.9267954610339 pbc="F F F"
C        0.06188748      -0.41300831      -0.05917701        0       0.51878390      -1.33029356      -0.28137950      -2.02369342       3.39689249      -3.88175784      -1.73757677       3.06099859      -4.05623519
O       -0.84590045      -0.91440328      -0.68391526        0       2.39381733       1.49215099       0.32605298       1.18664524      -0.67438004       1.16545000       0.60306623      -0.71692901       1.35027603
O        0.38038873      -0.30470621       1.16437109        0       0.28160342       0.52266786       0.47620416       2.28123362      -1.21904997       1.49925157       2.13939398      -0.60575963       2.03496340
O        0.76563908       0.62909094      -0.66912610        0       1.24903466      -0.56473343      -0.35908562      -1.38214163       0.34349184      -3.70162543      -1.42710103       0.39834570      -2.52389040
C       -0.47330359      -0.40892611       2.29176484        0      -1.60808982      -0.52827444      -1.73169184       0.91173751       1.62762500       0.08693395       1.14367066       1.23352906       0.00261162
C        0.18332504       1.28003239      -2.02989456        0      -2.17910398       0.27191761       0.95693270       0.37463079      -1.09216666       3.46969894       2.21797041      -2.77968325       0.93006792
H       -0.18791316      -1.28154362       2.90770688        0       0.01614698       0.27000784      -0.36493966       0.23671606       0.83183845      -0.01833604       0.16690093       0.91706183       0.15310238
H       -0.38459790       0.69482326       2.68738209        0      -0.19337845      -0.19025365      -0.01251923      -0.37900902      -1.96103179       0.31911156      -0.40451016      -2.33186438       0.18366290
H       -1.39617369      -0.61460198       1.85890665        0       0.10917945      -0.13743221       0.10224120      -2.33537306      -0.28243951       0.08252545      -2.22588297      -0.13654840      -0.13688059
H       -0.59071765       1.94581176      -1.88947804        0      -0.21110545       0.61272015       0.46202155      -0.21838681       0.06037484       0.31957617      -7.65963789      -2.10414836       1.15966481
H        0.17585335       2.38503251      -1.81599823        0      -0.82213503      -0.60892394      -0.01074143       0.34799341      -2.14471418      -0.87398807       6.08449049       1.39686351      -0.89133453
H       -0.06317358       0.55214465      -2.89726286        0       0.44524698       0.19044677       0.43690468       0.99964731       1.11355954       1.53315974       1.09921613       1.66813435       1.79399165
12
Properties=species:S:1:pos:R:3:molID:I:1:momenta:R:3:force_mace:R:3:forces_xtb:R:3 Nmols=1 Comp=DMC(1) energy_mace=-589.2073766785338 energy_xtb=-584.3145484204388 pbc="F F F"
C        0.13591129      -0.36149029      -0.10540078        0       1.49940004       2.16292282      -0.25071169      -1.90728964       1.87895165      -0.92110958      -1.81608432       1.74596228      -1.40059148
O       -0.75400811      -0.91907721      -0.68905398        0       0.58278717      -1.74675941      -0.71151773       0.23082627      -1.26219557       0.88733443       0.01534860      -0.97887190       1.19092744
O        0.42788477      -0.29605048       1.19062978        0       0.83794251      -0.38422258       0.38266994      -0.08530501      -0.26112794      -0.28323223      -0.25467734       0.07374567      -0.31969794
O        0.78852519       0.62119755      -0.77310290        0      -0.50519540       0.33005085      -2.51749595       0.23702029       0.88696268      -0.05337073       1.37506995       1.07719075       1.12647975
C       -0.58282305      -0.45823833       2.16891633        0      -1.43635420      -0.65361914      -1.12649100      -0.04427117      -0.14904525       1.68741452      -0.04485934      -0.60736218       1.88248715
C        0.03287360       1.27985535      -1.79402411        0      -1.29509060       0.07336410       3.55552919       4.84727683      -2.58245143      -1.96236322       5.03360222      -5.27208147      -4.17878626
H       -0.07252906      -1.19360580       2.86247936        0      -0.07867848       0.01731177       0.04975342      -0.90562371       0.29783009      -0.36155605      -1.16625559       0.43836830      -0.37679063
H       -0.73825927       0.48060715       2.77548054        0      -0.35486204       0.01719023       0.02443435       0.49016814      -0.41822567      -0.79004309       0.55659400      -0.45169271      -0.77799298
H       -1.63780556      -0.74456977       1.90074246        0       0.45189698      -0.08323012       0.10214921       1.08471137      -0.15197820      -0.47804030       1.37156379      -0.21673804      -0.46488158
H       -0.61438241       1.94358219      -1.58399861        0      -0.11141016      -0.27033333       0.40044662      -3.75821131       2.34617825       1.10654501     -11.41826249      -1.83711448       3.54710275
H       -0.07824798       2.44646762      -1.80064510        0       0.31732638      -0.05915234      -0.03477432       0.90408754      -1.79872069      -0.12260819       7.60179333       4.23278914      -2.00773229
H        0.35766177       0.75363900      -2.79723395        0       0.09223779       0.59647714       0.12600796      -1.09338961       1.21382209       1.29102943      -1.25383281       1.79580463       1.77947607
12
Properties=species:S:1:pos:R:3:molID:I:1:momenta:R:3:force_mace:R:3:forces_xtb:R:3 Nmols=1 Comp=DMC(1) energy_mace=-588.960126811699 energy_xtb=-584.7208527724338 pbc="F F F"
C        0.09428473      -0.21222928      -0.15124278        0      -1.90534762       0.29697035      -0.10844903       0.66207125      -3.57912640       1.63969307      -0.29759048      -3.55059043       0.85758425
O       -0.68643001      -0.98465114      -0.67351498        0       1.99270989       0.17580565       1.19019301       0.27327968       1.00817146       1.04418523       0.17642328       1.14733411       1.49982675
O        0.47693375      -0.32865621       1.21717449        0       0.10339361      -0.22999520      -0.39137765      -1.71914417       0.50857490      -1.23028455      -1.22699703       0.86507576      -1.47195492
O        0.81685043       0.60872775      -0.89066779        0       1.85879973      -0.42996260      -0.56548689       0.85678656      -0.32261526       1.50271811       3.16415991      -0.33998729       3.09404160
C       -0.63184610      -0.53982015       2.11688306        0      -0.61600081      -2.08672869      -1.12982241      -0.97312510      -0.92362638      -1.59707014      -1.21651615      -1.25750135      -1.36891708
C       -0.01939754       1.34480358      -1.60366127        0      -0.81350173       1.68172231       0.35140755       2.48109581       2.64055570      -5.28017165       1.17886011       0.23132959      -7.26559205
H       -0.33992366      -1.19884562       2.95599563        0      -0.13148758      -0.13469940       0.23609103       0.22119533       0.52925721      -0.43163644       0.16711543       0.55795689      -0.48978007
H       -0.99963228       0.46393025       2.48963257        0      -0.18753283       0.04681147      -0.37461007       0.26316013      -1.09222195      -0.48862957       0.18139898      -1.20865287      -0.48136712
H       -1.46226518      -1.19050774       1.48930412        0       0.46350918      -0.17028760      -0.39110510       1.28840483       1.53743511       1.57883919       1.54319539       1.76211379       1.44661277
H       -0.63856392       1.98117937      -1.22899587        0       0.16615054       0.15880808       0.54694356      -3.75348348       2.29626737       2.04069110      -9.43391822      -1.48223211       3.95911683
H       -0.05087142       2.52844490      -1.46945271        0      -0.40410837       0.67787025       0.69881976       0.57061018      -1.54198420       0.28595550       6.24842464       3.42753720      -1.49739736
H        0.10010238       1.26845322      -2.74416670        0      -0.52658403       0.01368539      -0.06260375      -0.17085103      -1.06068758       0.93571015      -0.48455585      -0.15238328       1.71782642
12
Properties=species:S:1:pos:R:3:molID:I:1:momenta:R:3:force_mace:R:3:forces_xtb:R:3 Nmols=1 Comp=DMC(1) energy_mace=-588.2881127229125 energy_xtb=-584.7041915316829 pbc="F F F"
C        0.10072963      -0.22284652      -0.07829186        0       2.67797218      -0.09794906       0.75751272       2.64506398      -1.93129536      -2.52593350       1.52420233      -1.76202172      -2.98405940
O       -0.61243352      -1.02271855      -0.64245072        0       0.40280459      -1.22676841      -0.15352798      -0.62496133       0.66404475       0.79577390      -0.65725484       0.86216491       0.90019966
O        0.45625689      -0.30999053       1.19804222        0      -0.93706529       1.08790130      -0.22294134      -0.89976295      -0.02129115       0.47083723      -0.63531855       0.25556553       0.33325329
O        0.87681713       0.59311444      -0.91021102        0      -0.68217880       0.54210102      -0.42422792      -3.23443639       2.03258684       0.34700793      -1.92600165       1.73595302       1.12001055
C       -0.64669105      -0.69340637       2.02503543        0       0.02471660      -1.96982960      -0.96263968      -2.98404637      -0.57600388      -2.31497847      -3.15000199      -0.82429710      -2.12445968
C       -0.05856000       1.61391784      -1.59602972        0      -0.51499449       2.67991812       0.39236436       2.56381858     -11.50107512      -4.10638643       2.92802672     -11.67446461      -5.77811010
H       -0.47540295      -1.07219966       2.99919907        0       0.06517218       0.07865907       0.18250408       1.02349006      -0.32581974       0.52189018       0.97526590      -0.35840099       0.37998704
H       -1.26224385       0.19626298       2.09550116        0      -0.36623748      -0.14216932      -0.11455273      -0.12734585       0.53325886       0.51226675      -0.15755210       0.49314205       0.50236709
H       -1.51389137      -1.44848881       1.47994529        0      -0.32458911      -0.69202286       0.25113985       2.42969994       1.18685310       0.93962506       2.73065261       1.35132575       0.99285839
H       -0.79413078       1.83501261      -0.95616080        0       0.14123955      -0.42999573      -0.32778041      -1.02089362       1.60337383       1.15719310      -7.56968807      -3.88282377       4.12575974
H       -0.13970516       2.41652180      -1.18884276        0       0.06562430       0.25175858       0.26244213      -0.86577370       7.85616613       3.89215403       4.92871307      12.88520832       1.67000101
H       -0.52127847       1.16126518      -2.51724070        0      -0.55246422      -0.08160312       0.35970693       1.09514764       0.47920175       0.31055022       1.00895657       0.91864862       0.86219241
12
Properties=species:S:1:pos:R:3:molID:I:1:momenta:R:3:force_mace:R:3:forces_xtb:R:3 Nmols=1 Comp=DMC(1) energy_mace=-588.5358729036072 energy_xtb=-575.4133377616653 pbc="F F F"
C        0.26904190      -0.31878395      -0.13048660        0       0.79508905      -1.61682446      -1.40850223      -2.09458177       2.17488143      -0.40893252      -2.33889448       1.47249440      -0.73049971
O       -0.56867749      -1.02346589      -0.60386585        0       1.42354140       0.86949234       1.04818830      -0.24194332      -1.62924688      -0.92713033      -0.53587830      -1.35839230      -0.58674995
O        0.38163053      -0.25094499       1.21008505        0      -1.07023502       0.86522696       0.18406466       0.21495687      -0.32116311      -0.83044496       0.15148654       0.10299310      -0.85569665
O        0.77855169       0.68441192      -0.95645005        0      -2.09085740       1.84937214      -0.23816047       2.23429844      -0.89822137       1.55286921       2.43245576      -0.46147391       2.54059958
C       -0.73139211      -0.85973262       1.94998289        0      -0.55992856      -1.50127588      -0.40485895       2.07119087       1.55761424       0.71581991       1.83456951       1.15596631       0.66554171
C       -0.02887214       1.67784575      -1.51743865        0       0.32479086      -0.58847877       1.95475961      -1.32652189      -5.12588067      -1.51024954       2.99488137      -9.77562776      -9.26144134
H       -0.14912420      -1.00402433       2.85843906        0       0.29568083       0.22516131      -0.45303519      -0.76128607      -0.21266381       0.75590074      -0.66436424       0.08149449       0.72934616
H       -1.49132598      -0.05648405       2.03310640        0      -0.24750234      -0.28048344       0.02023648      -0.04810252      -0.65282912      -0.02534271       0.14607906      -0.91383471       0.00433206
H       -1.05423645      -1.84343184       1.65602661        0       0.51243562      -0.76512014      -0.35151026      -0.19461574      -0.00121622      -0.72323644      -0.24796751       0.11247753      -0.79774171
H       -0.57972250       2.37367460      -0.81768786        0       0.49919164       0.76784641      -0.12675610      -7.79339365      -2.37890695       1.88710668     -55.75358991      -4.88545139      23.43847582
H       -0.21669943       2.40716489      -0.96215759        0       0.07528716       0.03328924       0.18259380       7.85976648       6.43140835      -0.25693157      52.35111252      13.30435269     -16.14019117
H       -0.63103378       1.16185850      -2.30531349        0       0.04250675       0.14179430      -0.40701966       0.08023231       1.05622410      -0.22942847      -0.36989033       1.16500155       0.99402520
12
Properties=species:S:1:pos:R:3:molID:I:1:momenta:R:3:force_mace:R:3:forces_xtb:R:3 Nmols=1 Comp=DMC(1) energy_mace=-589.0250500547403 energy_xtb=-585.0440934188175 pbc="F F F"
C        0.28775173      -0.27846042      -0.15696373        0      -0.11007692       1.73687182       0.63826451      -4.52492878      -0.15683357       0.19218658      -4.93995292      -0.91876851       0.08317714
O       -0.52860664      -1.04985444      -0.62745186        0      -0.04755361      -1.76444813      -1.08822628       0.99214830      -0.60071154      -0.88810726       0.84912099      -0.66643638      -0.22560710
O        0.32062745      -0.19974890       1.19111889        0      -0.82983853       0.71380517      -1.07124127       0.92372783       0.61098678       0.26330077       0.67006137       1.14035210      -0.01523007
O        0.71799340       0.70326765      -0.93224239        0       0.16769682      -0.94551143       0.69099064       2.57490219      -0.75755784       0.53964181       4.27456086      -1.15940747       1.62545075
C       -0.66582870      -0.97336171       1.91032692        0       1.91800775      -0.40479013       0.23706087       1.21655590       1.84602711       1.67306498       1.38280878       1.49766023       1.80455387
C       -0.10747595       1.66329215      -1.37450313        0      -0.54772746       1.06615916       1.02766377       1.87031600       1.57270087      -2.42221634      -0.39976746      -0.35453063      -3.81531292
H       -0.23694123      -0.94550640       2.96290598        0      -0.71907775      -0.10882915       0.23931610      -0.36189608      -0.48359566      -0.97702745      -0.36403872      -0.64285926      -1.16639774
H       -1.65482394      -0.51289801       2.02726679        0      -0.21761701      -0.37092888      -0.00842764       0.18508938       0.15586609      -0.52237783       0.26460784       0.22563464      -0.73593447
H       -0.71168946      -1.89405615       1.41426644        0       0.08801930      -0.25143370      -0.31325229      -0.40834315      -1.86328131       0.05766161      -0.28636832      -1.50065122      -0.11157908
H       -0.41046764       2.48900869      -0.94890115        0       0.20274258       0.66638209       0.37117469      -1.66265407       2.18819059       2.51361018      -8.21247735       1.58492708       5.42994097
H        0.38793761       2.66095779      -1.20218804        0      -0.19406180      -0.66797731      -0.51843451      -0.25956434      -0.89073398       0.21122911       6.75092639       1.42347573      -2.59617349
H       -0.35983996       1.67696908      -2.42542764        0       0.28948663       0.33070049      -0.20488861      -0.54535317      -1.62105754      -0.64096618       0.01051853      -0.62939629      -0.27688787
12
Properties=species:S:1:pos:R:3:molID:I:1:momenta:R:3:force_mace:R:3:forces_xtb:R:3 Nmols=1 Comp=DMC(1) energy_mace=-588.7443511697735 energy_xtb=-584.4436455025116 pbc="F F F"
C        0.09200111      -0.20911752      -0.13924784        0      -3.65717135      -0.38753964      -1.11294203       2.35817512      -0.62385039      -0.84110194       1.37027590      -0.87742661      -1.14470344
O       -0.44108311      -1.11176810      -0.69899730        0       1.94718224      -0.64462948      -0.83191786      -1.53558798      -1.20165812      -0.27076259      -1.33209009      -0.85334036      -0.04800107
O        0.28363185      -0.13420403       1.15818498        0      -0.57210858       0.79929762       0.09847178      -0.34894904      -0.39756152       1.71997425      -0.22546192      -0.10921760       2.00797870
O        0.78903774       0.67669479      -0.88603101        0       0.76831704       0.50963475       0.95109150      -2.08177552       2.31701646       0.73907678      -0.30841610       1.92388147       0.88713127
C       -0.56483666      -1.04852334       1.92644901        0       0.61414477      -1.23803309      -0.05339411      -1.54661952       1.58948049       0.12977102      -1.43610754       1.49058079       0.14053707
C       -0.15787772       1.75764916      -1.34179671        0       0.78900887       0.82557134      -0.08251509       4.38000122      -3.10402548      -1.89358611       2.08104777      -5.16275075      -3.19074101
H       -0.67108589      -1.11928476       3.02724714        0       0.03744063       0.09584157       0.17328994       1.19344898       0.88936169      -0.02688427       1.40530027       1.13055868      -0.47569869
H       -1.56175335      -0.77467234       1.61983600        0       0.18773390       0.14306638      -0.54545381      -0.81441423       0.54513290      -0.07014678      -0.89719313       0.45698145      -0.11639028
H       -0.55434620      -2.03376493       1.62381959        0       0.53196738       0.12234835       0.30900301       1.21305586      -2.05970411      -1.11715778       1.07638550      -2.21406077      -1.09136322
H       -0.22091020       2.49130488      -0.74286018        0       0.08572334       0.17720074       0.44736170      -1.50239552       3.04090583       3.31261066      -6.94073643       1.65428554       8.84179259
H        0.32956795       2.81325422      -1.21507929        0      -0.30152302      -0.12470313       0.10268083      -0.31957672      -1.60630706      -0.97601592       5.75602796       1.64868680      -5.42613629
H       -0.47566651       1.38276902      -2.28180144        0      -0.43071521      -0.27805541       0.54432414      -0.99536264       0.61120930      -0.70577733      -0.54903219       0.91182136      -0.38440562
12
Properties=species:S:1:pos:R:3:molID:I:1:momenta:R:3:force_mace:R:3:forces_xtb:R:3 Nmols=1 Comp=DMC(1) energy_mace=-589.0651236143538 energy_xtb=-584.910609238972 pbc="F F F"
C        0.01068274      -0.19026549      -0.19057986        0       1.62070491      -0.06921898      -0.75289740       2.51364255      -4.03366540      -0.11064845       2.07579135      -3.49371101      -0.32400636
O       -0.37778920      -1.21629345      -0.78743777        0       0.36976076      -1.69960497      -1.49292155       0.24233686       3.53168394       2.21665144       0.39752201       3.75840491       2.33555184
O        0.21144059      -0.11166486       1.19450632        0      -1.86346066       0.16485307       0.21979132      -1.82271995       0.35651960      -2.41395225      -1.83375252       0.36590459      -2.45251379
O        0.75076751       0.78058761      -0.82366587        0      -1.54952191       1.83558647       1.09127539       0.01756419      -2.17461121       0.65317949       1.44140226      -3.16635091       1.28115038
C       -0.55850591      -1.09525276       1.88666148        0       0.58528092      -0.69564064      -1.23326435       1.28204754      -0.78367200      -0.79170264       1.19751356      -0.99118840      -0.77792137
C       -0.02355772       1.74892625      -1.28573106        0       1.22513304      -0.47190853       0.84813194      -1.87683146       1.76557602      -3.33906247      -2.52117937       1.03476062      -5.82885058
H       -0.48454580      -0.83353434       2.92044732        0       0.14929379       0.54581526      -0.15410135      -0.39265192       0.23753223       0.62329644      -0.32766582       0.25842572       0.61276283
H       -1.62139874      -1.13641300       1.49586130        0      -0.16040919      -0.92547741       0.40549729       1.04128417      -0.14499852       0.35181557       1.38779596      -0.31703853       0.45976574
H        0.11203249      -2.01465304       1.74726687        0       0.08753635       0.60308820       0.28320703      -1.38880067       0.10392722       0.17849715      -1.68547541       0.43609512       0.11151378
H       -0.29283424       2.41382812      -0.63823536        0      -0.36210409       0.24427125      -0.06424723      -1.31721831       3.48155955       3.27078945      -6.27531284       0.51407436       9.68394204
H        0.16436160       2.86235178      -1.21162883        0      -0.07287765       0.20169031       0.22397626       0.70704115      -1.55640956      -0.37412359       4.72623773       1.63380417      -5.33933498
H       -0.94320664       1.52165231      -1.90932251        0      -0.02933627       0.26654598       0.62555266       0.99430586      -0.78344188      -0.26474013       1.41712309      -0.03318062       0.23794047
12
Properties=species:S:1:pos:R:3:molID:I:1:momenta:R:3:force_mace:R:3:forces_xtb:R:3 Nmols=1 Comp=DMC(1) energy_mace=-588.7615743874289 energy_xtb=-584.0604093139835 pbc="F F F"
C        0.16613861      -0.31722242      -0.25571342        0       1.50028204      -1.59999162      -0.64716293      -0.54609896       3.55451503       2.62515733      -0.44650544       3.89697800       2.91872142
O       -0.33327898      -1.21327135      -0.79493564        0       1.28352578       0.63819423       0.76475409      -0.41860716      -2.20004849      -1.63309489      -0.45788017      -2.03429904      -1.47848306
O        0.06766995      -0.09746177       1.12858571        0      -2.54543930      -0.34008881      -2.37598649      -0.04404617      -1.34286623      -1.71854769      -0.37629032      -1.40321831      -2.72984413
O        0.70178428       0.82450739      -0.71751969        0      -0.18505835       0.07535796       1.49301751       1.41484744      -0.67255861      -0.33123104       2.37165812      -1.66055945       0.32131091
C       -0.52761855      -1.12726085       1.85087649        0       0.54545174      -0.72110251       0.76375394       2.08277508      -2.23895806       1.54230131       2.20728270      -2.70459791       2.05242803
C       -0.05653629       1.86673806      -1.25026292        0      -1.99048652       1.62458230       0.28836501      -0.19114670      -3.49577575      -2.32251332      -1.58764770      -4.21510866      -5.18945162
H       -0.68430319      -0.51129990       2.71572832        0      -0.46467579      -0.03729987      -0.15589395      -0.23274409      -0.65863856       0.55670298       0.03314389      -0.77851171       1.44121138
H       -1.37137694      -1.80363337       1.75323548        0       0.52797480      -0.16259834      -0.04901129      -0.70110420       1.11770409      -0.89879505      -0.91684597       1.23786158      -1.70279570
H        0.24113201      -2.10347983       1.95261477        0       0.22477168       0.12258134       0.22215202      -0.76189042       2.47532744      -0.06527925      -0.76877138       2.57372996       0.38150863
H       -0.26082478       2.60530036      -0.67004827        0       0.40967305       0.05758387      -0.28533619      -1.80639462       2.98542073       2.75093699      -7.96435643       1.84055073       8.62243725
H        0.41822636       2.84187781      -1.09651146        0       0.26216580       0.24491622       0.14848411      -0.19377398      -1.24218342      -1.21588432       5.86938193       1.09903943      -5.43343864
H       -0.91725046       1.36176122      -1.90800481        0       0.43181505       0.09786523      -0.16713583       1.39818379       1.71806185       0.71024695       2.03683077       2.14813537       0.79639552
12
Properties=species:S:1:pos:R:3:molID:I:1:momenta:R:3:force_mace:R:3:forces_xtb:R:3 Nmols=1 Comp=DMC(1) energy_mace=-588.0581519446596 energy_xtb=-583.5533451900714 pbc="F F F"
C        0.24554438      -0.29503771      -0.21190672        0      -0.33715442       0.49654008       0.69529309      -4.51423277      -2.57568860      -3.15372471      -4.65834054      -3.42199017      -3.32583344
O       -0.27119738      -1.24661619      -0.79432703        0       1.09194331      -0.54931944      -0.77273609       1.91862773       0.46843445      -0.37831299       1.90793089       0.43930838      -0.88881903
O       -0.05292911      -0.13239112       0.97964459        0      -1.75690354      -0.53529556      -0.85248189      -0.76131400       0.54750670       6.23640813      -0.68905698       1.05918257       7.53541147
O        0.68094912       0.81375105      -0.66989094        0      -0.22317109       0.61681571       0.07619534       0.86971785       2.65826784      -2.04672219       1.65426072       3.05067372      -2.35275002
C       -0.47514901      -1.19528060       1.94856070        0       0.44412340      -0.68119201       0.58270037       1.88375846      -0.51758787      -2.78085072       1.58520304      -0.68249138      -2.44404673
C       -0.14232058       1.94685768      -1.19693838        0      -0.51540721       0.07507572       0.94029046      -0.03579180      -4.86463221      -3.54027861      -2.94513086      -6.77830416      -4.70098161
H       -1.04862662      -0.79583121       2.77614438        0      -0.18513548      -0.62451268       0.13489045       0.22418518       0.20499492      -0.17360444       0.24799904       0.37530044      -0.22791282
H       -1.19894939      -1.87952917       1.26836083        0       0.52102138       0.23690265      -0.54444286       1.87941039       0.97132398       1.76845972       2.04900567       0.77908435       1.65655554
H        0.64691833      -1.50944790       2.28008855        0       0.44509981       0.44951862       0.50342058      -2.94514831      -0.19341421      -0.41250269      -2.95035254      -0.35079681      -0.43792772
H       -0.11800558       2.78877796      -0.70523184        0       0.13137374      -0.23338104      -0.36450445      -0.98894089       2.40191965       2.40554323      -6.89748802       3.67710448       7.79131719
H        0.51691341       2.70245257      -1.20001051        0       0.10490868       0.40052599      -0.16580164       1.43337751       1.34107496      -0.57833946       8.99935439       1.93392119      -5.75510063
H       -0.72940904       1.84290349      -2.29655734        0       0.27930142       0.34832194      -0.23282335       1.03635065      -0.44219961       2.65392474       1.69661519      -0.08099260       3.15008781
12
Properties=species:S:1:pos:R:3:molID:I:1:momenta:R:3:force_mace:R:3:forces_xtb:R:3 Nmols=1 Comp=DMC(1) energy_mace=-589.353300940013 energy_xtb=-584.3985037166123 pbc="F F F"
C        0.11408055      -0.29294894      -0.25164484        0      -2.56493302       1.08147917      -0.49550757       0.27861543       3.24996678       2.46917217       0.09857122       3.26235408       2.19799949
O       -0.14268741      -1.25128872      -0.85297161        0       2.47078514      -0.59553985      -1.28945080      -0.26049290      -1.89950526      -1.66710567      -0.06591351      -1.71728998      -1.58814814
O       -0.15438544      -0.12099211       1.07400451        0      -1.41296025       0.72261693       3.18747585      -0.05325828      -0.20932942       0.59269509       0.08183740      -0.10143188       0.70798148
O        0.70909837       0.90470386      -0.70717184        0       0.75349164       1.36405969      -0.77193234      -0.38576216      -1.14962778       0.60596598       0.87866589      -2.63331891       1.17556261
C       -0.42080093      -1.22460533       1.93514532        0       0.09315906      -0.88293298      -1.06709525      -1.63763311      -2.70345008      -0.19935625      -1.91061026      -2.81130065       0.00183956
C       -0.11970199       1.92018298      -1.17340614        0       0.85825924      -0.10234617       0.43196251      -0.20870349      -2.85563121      -2.38696590      -3.23415296      -4.84836115      -3.70966595
H       -1.27546930      -1.24257324       2.70734135        0      -0.23828265      -0.05159799      -0.45735436       0.56236203       1.29249742      -0.95632247       0.66840130       1.53964159      -1.28612823
H       -0.80616188      -2.16451879       1.32033241        0       0.27411439      -0.77700742       0.20217508       1.02276334       1.52618224       0.26417201       1.33151400       1.57355638       0.62042080
H        0.41126441      -1.50001996       2.59587570        0       0.37060341      -0.27790262       0.46960687       0.46015987       0.52605859      -0.73723116       0.35484897       0.18061667      -0.82077643
H       -0.20601645       2.81653469      -0.70841400        0      -0.18569810      -0.49310582      -0.05024437      -0.85030294       0.46341201       1.12582359      -7.53374454       1.36655204       8.15359806
H        0.32708136       2.82179208      -1.25658466        0      -0.09635684       0.69422133      -0.04311370       0.95023823       0.95531125      -0.48818667       8.77672505       2.80661507      -7.29399619
H       -0.64055855       1.53743288      -2.14864625        0      -0.32218201      -0.68194427      -0.11652192       0.12201397       0.80411545       1.37733928       0.55385743       1.38236675       1.84131294
12
Properties=species:S:1:pos:R:3:molID:I:1:momenta:R:3:force_mace:R:3:forces_xtb:R:3 Nmols=1 Comp=DMC(1) energy_mace=-587.882290192434 energy_xtb=-583.0917355821608 pbc="F F F"
C       -0.03954799      -0.21779455      -0.19946184        0      -0.51746963      -0.31878760       0.06389754       4.27548088      -2.46214537      -2.01746693       3.81193103      -2.43605245      -1.82633739
O       -0.00228765      -1.25424290      -0.97459896        0       1.83312591       1.54355981      -1.13807393      -1.37056118       4.92048381       4.33589314      -1.18148924       4.98287116       4.71378761
O       -0.23469021      -0.09916705       1.19450966        0      -0.68836299       0.31315869       0.20280608       0.15280709      -1.49483120      -4.12881059       1.05026441      -1.16004549      -5.01194793
O        0.74235837       0.92120731      -0.68213818        0      -0.26431462      -1.27003804       1.34226136      -3.22175615      -0.54596210       0.53696236      -1.72715055      -2.22477933       1.42860401
C       -0.40168632      -1.38077693       1.88650125        0      -0.10104142      -1.00578070      -0.28824004      -3.62694841       4.31594357      -1.43153418      -4.21697350       4.05832114      -1.16127148
C       -0.07339790       1.91504295      -1.19824574        0       0.33260846      -0.16515390       0.04133683      -2.24216389      -2.19677694       0.14905951      -2.50599338      -3.90010981      -2.29776278
H       -1.40991029      -0.97223225       2.21627708        0      -0.25101097      -0.03360801      -0.19766849       0.60001088      -1.90571811       0.46760374       0.76921317      -2.46412976       0.80358751
H       -0.22325532      -2.23917642       1.34939359        0       0.31499024       0.00497957      -0.43360380      -0.53952293      -1.54510154      -1.58150028      -0.78304242      -1.63674973      -1.95250755
H        0.37863371      -1.36787764       2.49338846        0       0.25541318       0.31768734       0.22463663       2.97099935      -0.11521349       3.46468692       2.92360241       0.28040665       3.78169599
H       -0.45340112       2.74220628      -0.66464538        0      -0.05651118      -0.29139093       0.00426952       0.48737425      -0.49910419       1.13901024      -6.52266257      -0.98260859       8.64921292
H        0.05715897       2.88184575      -1.22744951        0      -0.04023582       0.64030777       0.09289386       2.05428621       2.86904630      -0.32781077       7.75589787       5.88661406      -6.98087129
H       -0.92639640       1.61597072      -1.82222213        0      -0.81719116       0.26506601       0.08548443       0.45999389      -1.34062074      -0.60609315       0.62640277      -0.40373784      -0.14618961
12
Properties=species:S:1:pos:R:3:molID:I:1:momenta:R:3:force_mace:R:3:forces_xtb:R:3 Nmols=1 Comp=DMC(1) energy_mace=-588.1803697714042 energy_xtb=-583.8711056311506 pbc="F F F"
C        0.02575861      -0.24953833      -0.19500732        0       1.98485016       1.34843447       1.25161842       1.77747592       4.46107574       2.99902043       1.49812632       4.58765548       3.20027532
O        0.06992361      -1.09050842      -0.95132021        0      -0.07620455       1.12946817      -0.40191492      -1.16082426      -5.61257620      -3.20021692      -1.51756214      -6.96764250      -2.97708638
O       -0.26094606      -0.12570566       1.11273905        0      -0.27871692      -0.93552695      -2.09238848      -0.78545066      -0.02075198       0.15384786      -0.80410977      -0.65625830       0.15583429
O        0.66240647       0.83625063      -0.59045385        0      -2.00897139      -0.46168593       1.50945062      -0.46207395       2.59095889      -0.80326336       0.26427064       3.47545837      -0.10061654
C       -0.37541513      -1.34530269       1.83908756        0       0.56632696       1.52049453      -0.69635225      -4.03294274      -0.44551638      -1.86092725      -4.25439473      -0.24299573      -1.73530122
C       -0.12539569       1.90440443      -1.24224032        0      -0.96462975      -0.61811614      -0.24238035       1.68740483      -3.32127754       4.52168489       0.74203127      -5.43076737       1.64188150
H       -1.38610369      -1.68706982       2.27420101        0       0.07681685      -0.88632014       0.24017560       0.49800877       1.29788525      -0.37105837       0.32967554       1.66439677      -0.42452609
H       -0.33129685      -2.10747602       1.12750182        0      -0.13015912      -0.10820572       0.24338012       0.76494187      -2.06817366      -0.79286615       1.31887040      -1.57975165      -1.07521628
H        0.21637689      -1.33467435       2.63621865        0      -0.37759373      -0.27221518      -0.12546374       2.89505187       0.27096874       2.98734232       2.95716262      -0.06884936       2.72400076
H       -0.27841072       2.72266978      -0.44943296        0       0.33193693      -0.06214239       0.24641074      -0.35462482      -1.12380777      -0.80697617      -5.73395666      -1.10864028       5.96866021
H        0.24039291       2.73828342      -1.05289431        0       0.57958135      -0.38176865       0.13129190       2.90015317       5.49741360      -0.02093549       8.63399405       7.37767802      -5.36475750
H       -0.92883602       1.55849624      -1.68644890        0       0.29676322      -0.27241606      -0.06382766      -3.72712001      -1.52619869      -2.80565179      -3.43410753      -1.05028346      -2.01314808
12
Properties=species:S:1:pos:R:3:molID:I:1:momenta:R:3:force_mace:R:3:forces_xtb:R:3 Nmols=1 Comp=DMC(1) energy_mace=-588.9581833322478 energy_xtb=-585.0611510131956 pbc="F F F"
C        0.19388843      -0.20522917      -0.14922585        0       1.17985758      -2.03450970      -1.54175289      -2.64456465      -3.13747242      -2.64188633      -2.70063944      -3.38721384      -2.68461348
O        0.05057221      -1.09516781      -0.97184800        0       0.34708761       0.00394030       0.97280257       0.65555916      -0.31461314       1.06211903       0.60896543      -0.44768966       1.28073847
O       -0.32709656      -0.17812802       1.03078908        0      -1.48491306      -0.96990386       0.36024168      -0.60502565       0.67456320       2.45467824      -0.48368413       0.19192835       2.97907781
O        0.61165585       0.92143232      -0.53202945        0       0.70380085       2.72885128       0.55706265       2.63317585       1.78682138       0.38984100       4.00198325       1.18878448       1.34419620
C       -0.39418721      -1.35974347       1.81729221        0      -0.19235997      -1.22267198       0.56120715       3.72689982       0.49876388      -0.20864969       3.59889422       0.62090160      -0.04361195
C       -0.15666632       1.82747486      -1.14876090        0      -0.37798991      -1.21101623       0.52461839      -2.23537656       1.29015527      -0.02116810      -4.83724334       1.53512330      -1.63417883
H       -1.26329418      -1.67523077       2.21836024        0      -0.38635262       0.80787606      -0.13321677      -3.14869494      -0.12028132       0.98687362      -3.34350620      -0.02165849       1.01468191
H       -0.09540507      -2.13673114       1.16127768        0       0.42278888       0.17543574      -0.15569336       0.41072621      -1.64833868      -0.39154493       0.67091303      -1.14638641      -0.59299351
H        0.33782454      -1.27180376       2.68447518        0      -0.08974396       0.37275463      -0.74557759      -0.47547771       0.27350461      -0.75543567      -0.53463913       0.04633803      -0.98961642
H       -0.24541280       2.93668677      -0.67680022        0      -0.30234958       0.84448217      -0.33372538       0.37907437      -2.62073806      -1.26182551      -4.97288087      -0.98155275       4.12024577
H        0.37980715       2.63675247      -1.26665293        0      -0.49045241      -0.03293025      -0.44287852       0.92774757       3.47396634      -0.36989081       7.27671541       2.12433801      -5.86467839
H       -0.85862453       1.54340753      -1.96923145        0       0.67062659       0.53769184       0.37691205       0.37595653      -0.15633106       0.75688914       0.71512175       0.27708738       1.07075242
12
Properties=species:S:1:pos:R:3:molID:I:1:momenta:R:3:force_mace:R:3:forces_xtb:R:3 Nmols=1 Comp=DMC(1) energy_mace=-588.5926366107867 energy_xtb=-585.0416396607418 pbc="F F F"
C        0.20447478      -0.27040135      -0.22926282        0      -0.15312802       1.43648891       0.02551167      -1.53099242       1.34675910      -0.06794111      -1.94008668       1.22838532       0.42603580
O        0.09160412      -1.21512119      -0.98356502        0       0.82022966      -2.96344218      -1.55024591       0.96434779       2.28729222       1.86097791       1.10806087       2.47171370       1.75121721
O       -0.42251018      -0.17802678       1.02162498        0      -1.20501445      -0.78432611      -1.09435907       1.97005184      -2.01711376      -1.90847788       2.68528597      -1.37896215      -2.39891311
O        0.70946018       1.07919337      -0.47299456        0       1.67088929       0.96230693       1.83457388      -0.89184751      -3.34684361       0.31392646       0.70388821      -4.14147560       0.97890124
C       -0.39878025      -1.40907563       1.84865240        0      -0.18377911       1.01309294       0.90894501       0.48230879       5.77529570       2.00950122       0.58409249       5.32749469       2.17685133
C       -0.19267074       1.86695191      -1.12012974        0      -0.73174244       0.79902706      -1.96031883      -0.05178522      -3.54602405      -4.61474077      -2.36462358      -3.45894654      -5.26848553
H       -1.41886064      -1.21080704       2.11092916        0       0.69169197      -0.00401006       0.00912882      -0.32910051      -1.48720593       0.61560421      -0.48687607      -1.66857197       0.99759323
H        0.00117933      -2.23792487       1.40198333        0      -0.25823427      -0.19171285       0.38727836       0.36516555      -1.69439228      -1.19346689       0.26382511      -1.77178289      -1.15819146
H        0.34899086      -1.01734761       2.71680193        0      -0.44289941      -0.14215668       0.13698214      -1.29635476      -1.24207460      -1.24264367      -1.61189116      -1.26492541      -1.38520185
H       -0.46163767       2.77194209      -0.85971228        0      -0.38708293       0.70126692       0.36385802       0.29553452       2.65988346       0.21444892      -6.29759486       2.77078947       6.25067707
H        0.23928597       2.72520385      -1.51825882        0      -0.29746098      -0.39101694       0.19167557      -1.09325688       0.58612753       1.41879491       5.90295119       0.61284489      -5.17021542
H       -0.79869672       1.34009287      -2.10958257        0       0.47653069      -0.43551792       0.74697035       1.11592880       0.67829622       2.59401667       1.45296851       1.27343650       2.79973148
12
Properties=species:S:1:pos:R:3:molID:I:1:momenta:R:3:force_mace:R:3:forces_xtb:R:3 Nmols=1 Comp=DMC(1) energy_mace=-587.7855835635344 energy_xtb=-584.6290235701616 pbc="F F F"
C        0.16217332      -0.22695619      -0.26140337        0      -0.18780759      -0.66648825      -0.86211828       1.73702951      -1.63132016       0.11703934       1.09622880      -1.64423811      -0.60854776
O        0.18173902      -1.22151202      -0.99040411        0       1.85860445       2.99944409       1.19463997       0.41142046       3.38641681       1.04809392       0.59577033       3.36010534       0.84924018
O       -0.42526980      -0.29661286       0.91360391        0       0.67872201      -2.06895282      -1.92920665      -0.47613358       0.47756945       1.57881895       0.21245543       0.85545546       2.44246655
O        0.74174615       1.08140380      -0.35262510        0      -0.97054370      -0.58307174       1.43460800      -4.26355135      -0.37651884      -3.36253889      -2.87919097      -0.96342629      -2.04131035
C       -0.41488853      -1.32021256       1.90649082        0      -1.30754086       0.01931948       0.96412652      -3.03285197       0.23370872       2.62749782      -3.29294591       0.22637003       2.48807655
C       -0.20755127       1.94215539      -1.23801684        0       1.20087885      -0.04301896      -1.02999267       1.91654793      -6.00145876      -0.94089776       1.00044706      -5.95476320      -2.40377963
H       -1.60201058      -1.42426361       2.34332746        0       0.47087738      -0.07387999      -0.10229516       2.58472761       0.69787744      -1.20397729       2.62517127       0.61633920      -1.11912732
H       -0.27201887      -2.29951120       1.56446403        0      -0.48140383       0.30706018       0.06448039       0.74961873      -0.98630032      -1.09899104       0.71255318      -1.15592763      -0.95400612
H        0.17012119      -1.18901458       2.91155941        0       0.07152899       0.05552220       0.20797562      -0.27943860       0.50332628      -1.80366484      -0.50043648       0.56173733      -2.17835880
H       -0.65207371       2.70050051      -0.82208926        0      -0.51866617      -0.17951902       0.26395410      -0.00887329       2.84285847       0.36706013      -6.56428359       1.16696703       6.65256152
H        0.03983320       2.98787143      -1.44671012        0      -0.38532812      -0.50446522      -0.12894282      -1.52003986      -2.55353209       1.32963819       4.63778047      -0.27580203      -4.40822496
H       -0.95045011       1.07147800      -1.86396216        0      -0.42932140       0.73805005      -0.07722903       2.18154442       3.40737299       1.34192147       2.35645042       3.20718286       1.28101014
12
Properties=species:S:1:pos:R:3:molID:I:1:momenta:R:3:force_mace:R:3:forces_xtb:R:3 Nmols=1 Comp=DMC(1) energy_mace=-588.0197285852779 energy_xtb=-583.553779453554 pbc="F F F"
C        0.18989560      -0.21572090      -0.21691365        0       0.67772046       1.41228920       1.64424900       0.87921846      -1.95935100      -1.77965723       1.00340861      -1.71112144      -2.48015753
O        0.32904582      -1.13084247      -0.99196895        0       2.82216594      -0.45625924      -1.61829414       0.40074616       0.77134867      -0.20631982       0.53022972       0.69356669      -0.46535884
O       -0.42007579      -0.36405798       0.87547068        0      -0.76267362      -0.62982007       0.89291732      -2.12968450       0.95456972       3.04099487      -2.06844358       1.88545664       4.06082392
O        0.58772564       1.06040255      -0.35862200        0      -3.35525128       0.44811932      -1.24342859       0.06375887      -0.35322967      -1.39712912       1.44509982      -0.98825633      -0.34031108
C       -0.47504962      -1.32783691       1.97573944        0      -0.78491564       0.00587522      -0.55158681      -1.97704278       2.19673806      -0.25443285      -1.77095491       1.85987336      -0.63902978
C       -0.18186020       1.83984859      -1.23710194        0      -0.46126479      -0.25127870       0.83478032      -1.40935165       1.79399256      -2.48445471      -2.84146125       0.80522326      -5.56098041
H       -1.66998814      -1.15796571       2.42252660        0      -0.12630529       0.13548784       0.20390019       3.77464081      -0.70353538      -1.05983775       3.40645292      -0.63564437      -0.95872431
H       -0.35990854      -2.24367491       1.41022909        0      -0.02343050       0.21858234       0.17355353       0.11418195      -0.46993614       0.87830769       0.18414937      -0.67834990       1.04487799
H        0.34483790      -0.88310712       2.62329757        0       0.57912216       0.36261158      -0.15186265      -1.21187191      -1.29507424      -0.20275111      -1.19450286      -1.40062904      -0.18803221
H       -0.42644108       2.63034129      -0.67782076        0       0.77745411      -0.32809573       0.29125889      -0.74196315       2.95718949      -0.22159357      -4.76674911       0.44559610       6.46132596
H       -0.19636672       3.08913806      -1.44724132        0       0.32316732      -0.21341679       0.07070557       0.47726649      -3.12504675       1.85869349       3.95234423      -0.29530054      -3.85658783
H       -0.92570741       1.51460196      -2.16508936        0       0.33421111      -0.70409497      -0.54619263       1.76010126      -0.76766532       1.82818011       2.12042705       0.01958558       2.92215411
12
Properties=species:S:1:pos:R:3:molID:I:1:momenta:R:3:force_mace:R:3:forces_xtb:R:3 Nmols=1 Comp=DMC(1) energy_mace=-588.2288500956569 energy_xtb=-584.6649307839949 pbc="F F F"
C        0.25869710      -0.26696271      -0.22593080        0       0.61123519      -2.37744514      -0.88948488      -1.91005685       1.00468596       1.67401262      -1.96049520       1.95797078       1.30786480
O        0.53826214      -1.08309134      -1.01930402        0       3.69977256       2.05020458       0.83613085       0.49369751      -1.44265852      -0.25250227       0.43665737      -1.74870001      -0.42427592
O       -0.46743725      -0.34960333       0.96597480        0      -0.89261799       0.76334093       0.99265538       0.27383636       1.61125427      -2.37719310       0.81299100       1.78033750      -2.45603765
O        0.42745564       1.05412902      -0.42811638        0      -1.28370168      -0.94461059      -0.07259299       2.43538241      -1.71881565       2.72932565       5.03691298      -3.38069999       6.09164805
C       -0.53083440      -1.27580186       1.93311029        0      -0.29809212       0.08955749      -1.15155826      -1.65260627      -3.40205632       1.14200244      -1.90417193      -3.49162086       0.95498333
C       -0.29018188       1.83321813      -1.20336597        0      -1.70991018       0.41023265       0.27313886       1.36032145       2.97756352      -1.22274384      -1.73379316       2.73199261      -3.57126937
H       -1.54475618      -1.10937117       2.53591025        0      -0.52302627       0.14936488       0.34334612       1.68936043      -0.39086475      -1.33981890       1.80181760      -0.54607414      -1.37448090
H       -0.40698784      -2.40493899       1.58414962        0      -0.06605060       0.12338515       0.34330027      -0.61014546       1.81183010       0.17041684      -0.76056917       1.88434985       0.27378955
H        0.25614614      -1.17145015       2.61610235        0       0.25534980      -0.43720332       0.48477369       1.16056701       0.41900346       1.08071959       1.27012965       0.41243100       1.28115351
H       -0.37082339       2.74970192      -0.72298620        0      -0.31124531       0.02791722      -0.88940867       0.08008798       0.59512316      -1.66727453      -5.26768630       0.27737258       3.62393952
H        0.24869155       2.90772803      -1.43372404        0       0.25896835       0.14254871      -0.03216363      -2.20065384      -2.30803342       1.36506203       3.89731985      -1.22567943      -3.64037688
H       -0.35205437       1.14678505      -2.00700206        0       0.25931825       0.00270743      -0.23813674      -1.11979074       0.84296819      -1.30200654      -1.62911268       1.34832011      -2.06693806
12
Properties=species:S:1:pos:R:3:molID:I:1:momenta:R:3:force_mace:R:3:forces_xtb:R:3 Nmols=1 Comp=DMC(1) energy_mace=-588.2854911584091 energy_xtb=-584.791424521598 pbc="F F F"
C        0.23598701      -0.30192747      -0.16000550        0      -0.50277246      -0.14128032       0.66978307       1.41647729      -1.25911739      -3.77497963       1.22461758      -1.04804822      -3.95328747
O        0.75880296      -1.07489828      -1.02053138        0       3.49615029      -0.37953977       1.08894024      -2.36100951       1.79341255       4.10815805      -2.47569629       1.61681410       4.47337228
O       -0.49869617      -0.29119862       0.94638243        0       0.27358603       0.81313336      -1.42348906       0.31553668      -1.38207205      -0.15456367       0.88764498      -2.29847134       0.27674291
O        0.38793829       1.00004286      -0.37635969        0      -0.17720989      -0.92925691       1.45384434      -0.65530403       1.14846134      -0.62721753      -0.61049205       1.84335753      -0.09942306
C       -0.53686992      -1.31818007       1.93803315        0       0.92124590      -0.83829927       0.38923446      -5.07192512      -2.05518166      -3.64457450      -5.32775714      -2.26202766      -3.70869794
C       -0.38574006       1.86924243      -1.27413228        0      -1.44578660      -0.02829846      -2.22961790       2.01998165       1.36923193      -0.28151698       0.36016166      -0.33095027      -1.77306197
H       -1.46709709      -1.07090312       2.48635242        0      -0.89532018       0.32277202       0.16014952       0.07778002      -0.19738778      -0.44703893      -0.12846428      -0.37451179      -0.39051335
H       -0.63046962      -2.45988063       1.56500677        0      -0.45336960      -0.15108538      -0.40242666       0.33331542       2.10927702       0.05033401       0.26745647       2.50935567       0.31807496
H        0.13079219      -1.25130432       2.63229826        0      -0.16929336       0.37646781      -0.32699109       4.65644178       0.53192739       3.61585825       4.74025489       0.45242882       3.50978399
H       -0.78653832       2.87237985      -1.24099419        0      -0.01686044      -0.42575550      -0.03931612       2.23270509      -1.34892177       1.20767623      -5.43227988      -0.67119542       1.64928299
H        0.19012485       2.76346360      -1.05277116        0      -0.49298771       0.82775148       0.57308727      -3.16444920      -0.27287539      -1.20539111       5.37972354       0.19745755      -1.28601127
H       -0.56249776       1.47053512      -2.30938723        0      -0.53738198       0.55339093       0.08680193       0.20044994      -0.43675418       1.15325581       1.11483051       0.36579104       0.98373795
12
Properties=species:S:1:pos:R:3:molID:I:1:momenta:R:3:force_mace:R:3:forces_xtb:R:3 Nmols=1 Comp=DMC(1) energy_mace=-587.7765194367543 energy_xtb=-582.4402858083163 pbc="F F F"
C        0.27431098      -0.33656195      -0.25074301        0       0.58545876       0.68096279      -1.37137001      -2.34792412       4.58527543       3.74845257      -2.75801865       4.93074141       3.98790873
O        0.90472936      -1.05058572      -0.86103796        0       2.30547243      -0.37886595       3.07497098       2.02981226      -4.19848013      -2.52026767       2.16441505      -4.83125194      -2.40581748
O       -0.48569138      -0.30344095       0.88829731        0       0.42454708      -0.94765867      -1.14785269       0.24647961      -0.36047185      -0.36166937       0.49417555      -1.46937570       0.31639430
O        0.33972002       0.97765053      -0.34655995        0      -1.70293793       0.70083343      -1.05904502      -1.32159571       2.82587518      -2.90494657      -1.42149834       3.72035877      -3.01287055
C       -0.59163545      -1.30314091       1.95773471        0       0.12114716       1.49033557       0.44268917       1.67868384      -1.33502835      -5.06180059       1.74675374      -1.52440673      -5.28949069
C       -0.40388952       1.88743109      -1.37557360        0       0.04790583       0.67249422      -0.12423774      -1.79101212      -2.66359730       1.02950350       0.02678521      -5.61774569      -3.17643307
H       -1.47213160      -1.02386347       2.26534555        0      -0.59455623       0.17075799       0.41766755      -3.96952701       1.27534597       2.44741414      -4.66165931       1.35496354       2.82003219
H       -0.83255288      -2.20042778       1.30804219        0      -0.04615962      -0.43446130      -0.26539143       1.01228903      -0.24697567       1.30689343       1.27788582      -0.10942032       1.51100402
H        0.21246369      -1.14269927       2.60469464        0      -0.53100657      -0.43413109      -0.34724200       1.05164207      -0.35650095       0.74169075       1.09385637      -0.68201625       0.72180911
H       -1.08400251       2.69862373      -0.89456065        0      -0.64431129      -0.71684252       0.22732990       1.78499308      -1.43748989      -0.62415297      -9.76523339      -2.58217490       2.12816664
H       -0.37959588       2.77710210      -0.96981464        0       0.08411850      -0.46143170      -0.14862441      -0.05052551       1.93452626       0.56982060      10.19249008       6.27001736      -0.13649839
H       -0.97059042       1.50503456      -2.34371369        0      -0.04967811      -0.34199276       0.30110571       1.67668458      -0.02247869       1.62906218       1.61004787       0.54031045       2.53579519
12
Properties=species:S:1:pos:R:3:molID:I:1:momenta:R:3:force_mace:R:3:forces_xtb:R:3 Nmols=1 Comp=DMC(1) energy_mace=-587.4108318006835 energy_xtb=-585.3252416900208 pbc="F F F"
C        0.30264923      -0.20718084      -0.24213853        0       0.55303168       0.67942972       1.02061416       2.64373376      -3.82879516       0.09995473       2.47818502      -4.06985513      -0.73330634
O        1.03461032      -1.13019662      -0.71360706        0       0.81403163      -0.70802640       2.54247118      -3.01056689       4.04041043       1.23206704      -2.77360251       3.98383890       1.18352351
O       -0.47208174      -0.37192089       0.81950351        0      -0.04341724      -0.94981244      -1.01014126      -1.39755149       0.36637972       0.29653421      -1.69039849       1.06277830       1.05655092
O        0.23187885       1.09404995      -0.48281564        0      -0.97362974       1.55950424      -2.23166230       4.14010349      -2.03968857       2.29998103       5.82272252      -2.70926263       3.94543032
C       -0.68225068      -1.23738249       1.91011468        0      -0.35146953       0.60943930      -0.32774179       6.26891116      -1.52962935      -0.90484078       6.45627304      -1.52092391      -1.31158026
C       -0.41129575       1.85125611      -1.32241179        0      -0.05207084      -1.14487833       0.85519182      -3.12159198      -5.63712075      -2.34869316      -3.63304607      -5.19423433      -4.80826395
H       -1.35563361      -0.97349696       2.57306696        0       0.75703839       0.02991572       0.24463694      -3.57576660       2.11943830       2.37042078      -3.37858612       1.93756105       2.47535939
H       -0.73216451      -2.24259312       1.69152420        0      -0.03071353      -0.36511224       0.18564634      -0.88103085      -1.93632277      -1.58249752      -1.22848413      -2.40844100      -1.55464799
H        0.30856193      -1.42883609       2.50864200        0      -0.31261984       0.28105567      -0.48346547      -0.74326309       1.16485337      -0.84193076      -0.75921342       1.33826016      -0.47505825
H       -1.27351858       2.06264084      -0.73145646        0      -0.25782136       0.27611477       0.20918162       0.73040304       1.83061813      -1.56244232      -4.96776048      -2.47987455       0.91939232
H       -0.53353239       2.78684245      -1.14867564        0      -0.57474512      -0.17825120      -0.60277308      -1.19071281       3.54764076       0.75538037       3.67545341       7.36883211      -1.46266101
H       -0.62472410       1.12116367      -2.23330846        0       0.47238550      -0.08937880      -0.40195815       0.13733227       1.90221589       0.18606640      -0.00154276       2.69132104       0.76526134
12
Properties=species:S:1:pos:R:3:molID:I:1:momenta:R:3:force_mace:R:3:forces_xtb:R:3 Nmols=1 Comp=DMC(1) energy_mace=-588.6112982534037 energy_xtb=-583.4299925618619 pbc="F F F"
C        0.36712275      -0.23924213      -0.16401434        0       0.32288107      -0.03692885       1.12852179      -3.54854574       3.49107669       1.67326180      -3.78527727       3.82368122       1.12463448
O        1.03421281      -1.08953741      -0.53436424        0       0.15065084       1.06219285       2.02010116       3.04059929      -2.54124259      -2.10391606       3.62970941      -2.55286408      -2.07237031
O       -0.56176405      -0.41531929       0.76343975        0      -2.78711154      -0.16842531      -0.27057685      -1.83353132       1.12093278      -0.18387409      -2.11597643       2.00333217       0.61918752
O        0.31546768       1.13465298      -0.51708605        0       3.11030261      -0.06025906       0.75302194       0.06479886       0.07873903      -0.00148662       2.38123169      -0.86217178       1.48000758
C       -0.58888217      -1.26126842       1.89175490        0       2.73099132      -0.61203474       0.43782404       4.09690583       3.61756519       1.99028977       4.01508360       3.39568465       1.79228610
C       -0.57705280       1.74533488      -1.40071520        0      -3.57996183      -0.57960172      -2.52066200       0.65814067       0.91762126      -2.20680039       0.46487718      -3.81145700      -3.47097719
H       -1.18701350      -0.80782396       2.70114702        0       0.34815948      -0.23715209      -0.89297873      -0.14477320      -0.18766970      -0.68724674      -0.17130823      -0.04830744      -0.67107838
H       -0.92278138      -2.17227003       1.60550916        0      -0.40859261       0.49445014       0.06657571      -0.66725974      -2.69079598      -0.57391144      -0.40477812      -2.91921776      -0.36417165
H        0.55373442      -1.09674316       2.31964214        0      -0.02692302       0.08363291      -0.03713975      -2.09621842      -1.21202696      -0.55215000      -2.32792951      -1.47284753      -0.68651326
H       -1.34091074       2.40076381      -1.06039101        0      -0.74783943      -0.48784753       0.56447986      -0.17606464      -1.58093886       1.28043518      -5.69510839      -3.11318803       4.54644523
H       -0.89291130       2.72012898      -1.64311041        0       0.51392569       0.03643955      -0.83300076       0.84660263       0.07309146       0.38991226       4.98180186       6.40874266      -2.98177417
H       -0.20653131       1.64433389      -2.46181350        0       0.37351743       0.50553384      -0.41616641      -0.24065421      -1.08635232       0.97548632      -0.97232578      -0.85138706       0.68432405
12
Properties=species:S:1:pos:R:3:molID:I:1:momenta:R:3:force_mace:R:3:forces_xtb:R:3 Nmols=1 Comp=DMC(1) energy_mace=-587.6430433394299 energy_xtb=-582.4133269186195 pbc="F F F"
C        0.30957257      -0.14753159      -0.05982597        0      -0.22252588       0.40125467       0.14118615       1.49622709      -1.27667833      -2.98415059       1.71086807      -2.22683961      -2.89043294
O        1.08402673      -1.06347358      -0.48054062        0      -0.09354464       0.89657905       1.11224329      -2.72051920       3.17926063       2.09979251      -2.55665453       3.49019445       2.24522012
O       -0.78439235      -0.42838612       0.73036469        0      -2.96373338      -0.20299179      -0.71061018       3.36181625      -0.61573899       0.86082384       3.16362329       0.25978073       0.70355797
O        0.47108210       1.12733604      -0.52609153        0       0.84196407      -0.46720091      -0.87618333      -4.41645690      -0.95218426      -1.95019392      -2.36876608      -0.72478572      -0.91609382
C       -0.38515014      -1.25446066       1.90893402        0       0.71004757       0.79362212       0.12076830      -2.54254303       2.44003179       1.15154342      -2.22597298       1.92850689       1.70808633
C       -0.76047928       1.66932922      -1.56882688        0      -0.49366123      -1.41575812      -0.56391875       6.02558762       1.24601805       3.26868299       0.34706488      -3.78422531       4.15259208
H       -1.13705320      -0.74156612       2.71985512        0       0.66551614      -0.12254692       0.32427834       1.98926307      -0.89866409      -1.18041692       1.93218688      -0.95443224      -1.24920212
H       -0.88033392      -2.19362822       1.74841058        0       0.95559370       0.33000878       0.48496428       0.57675375      -0.69817346      -0.21876987       0.57909535      -0.74703574      -0.10567359
H        0.69769662      -1.29242586       2.36286236        0       0.15805791      -0.22562023      -0.00799752      -1.66766171       0.23478411      -1.19833157      -2.03869038       0.31681921      -1.60824282
H       -1.56296030       1.76044233      -0.82373950        0      -0.43881335      -0.68657208       0.31037127       0.19648824      -0.14076135      -1.12683534       0.40880069       0.54878015      -1.17334752
H       -0.36921912       2.63363360      -1.98077571        0       0.68402053      -0.12161384      -0.25331416      -0.26177493      -3.01487262      -0.24783760      -3.16210176      10.04902376       5.79309455
H       -0.11542519       2.11019138      -2.29702019        0       0.19707856       0.82083926      -0.08178770      -2.03718024       0.49697852       1.52569306       4.21054657      -8.15578658      -6.65955825
12
Properties=species:S:1:pos:R:3:molID:I:1:momenta:R:3:force_mace:R:3:forces_xtb:R:3 Nmols=1 Comp=DMC(1) energy_mace=-588.5552986203014 energy_xtb=-587.3011401575513 pbc="F F F"
C        0.30350126      -0.13866455      -0.11866111        0      -1.54670504       0.59525567      -0.49258366      -4.36223047       0.99741127       0.20621257      -3.86921249       0.06061966       0.74539489
O        1.04425917      -0.98036332      -0.39509884        0      -0.35521779       0.17362214       1.26101766       2.85556323      -2.89359840      -0.97615701       2.75003921      -2.48113654      -0.30913432
O       -0.84178169      -0.45130303       0.71416462        0       1.00005955      -0.21271319       0.12443169       1.45428159       0.22604251       0.10628891       1.45874314       0.77432584      -0.12795868
O        0.38398598       1.06371728      -0.57889399        0      -2.75864318      -1.25195497      -0.91778042      -0.14219826       1.91160131      -0.40529903       0.37221182       1.46171986      -0.39620463
C       -0.36131027      -1.12599682       1.87166230        0       0.03347059       0.99050972      -1.01946138       2.56845424       0.64367710       0.67803025       2.86835319       0.39331004       0.91457864
C       -0.58449040       1.56633391      -1.46033766        0       3.72377512      -1.20407289       2.58997294      -1.14069012       1.84434139       2.85940024      -1.74195643       2.38238395       2.54946436
H       -0.56763949      -0.51901884       2.87209772        0       0.19893671       0.40790587      -0.01548944      -0.42539734      -1.38859225      -1.79743474      -0.45523432      -1.65828145      -2.00774658
H       -0.37856422      -2.26126050       1.81993602        0       0.09811280       0.72778426      -0.18012678      -1.12557813       1.20386505       0.27137047      -1.15421065       1.43322524       0.41507095
H        0.79189655      -1.00325813       1.80361460        0       0.40124312       0.63357245      -0.65825464      -0.82378436      -0.37022201       1.41167755      -1.18692787      -0.14645283       0.46797247
H       -1.58270424       1.20799364      -1.30045495        0      -0.24347520      -0.62040049      -0.71020966      -0.42205022      -0.60248503       0.45288825      -0.33731661      -0.06886489       0.35643266
H       -0.54192103       2.68637536      -1.59917528        0      -0.23808389       0.36217806       0.16335494       0.34057636      -2.32052996       0.15479258      -0.66124578       0.93144629       3.49688479
H       -0.39729592       1.75842903      -2.40234995        0      -0.31347277      -0.60168662      -0.14487125       1.22305349       0.74848902      -2.96177002       1.95675679      -3.08229517      -6.10475457
12
Properties=species:S:1:pos:R:3:molID:I:1:momenta:R:3:force_mace:R:3:forces_xtb:R:3 Nmols=1 Comp=DMC(1) energy_mace=-588.1502262069428 energy_xtb=-587.4271536293369 pbc="F F F"
C        0.17079283      -0.14206846      -0.15026915        0      -0.49044253      -1.50505684      -0.28009373       3.58841185      -4.03424922       0.12910388       3.53275662      -5.11839100      -0.02942071
O        1.04023443      -0.97594939      -0.35047863        0      -0.26195789       0.38830344       0.31824087       0.13964422      -0.00072001      -0.76337958      -0.10937759       0.56491023      -0.28951709
O       -0.77491499      -0.43932121       0.67831301        0      -0.04669981       0.71905773      -0.96101627      -1.41507380       0.62637351       0.64007976      -1.84194286       1.12317801       0.73216076
O        0.28689613       1.02678924      -0.56349678        0       0.69506878      -0.40072682       1.41300218       3.30050725       1.65561069       2.12527516       4.48803524       1.83837900       2.17575068
C       -0.23052670      -0.98191464       1.81213883        0       1.88260501       0.82851584       0.50640738      -4.27327366      -2.63389417       3.83692927      -4.22780416      -3.18818533       3.83286852
C       -0.51920027       1.51975857      -1.43209761        0      -1.91910804      -0.37872138      -3.47422013      -0.15509408       2.53886406      -4.19201213      -1.08560708       3.08359883      -4.69556878
H       -0.80880503      -0.45588964       2.70456494        0      -0.62073177      -0.05570422       0.26555490       0.84686593      -0.74438994      -1.23347831       0.83370871      -1.00308635      -1.39705477
H       -0.58866948      -2.14191052       1.83114744        0      -0.20136821       0.60164082       0.08990270       0.63474306       1.91048977      -0.03297665       0.71810511       2.15364357       0.22226260
H        0.76519235      -1.01460799       2.13474882        0       0.23614612      -0.27735810       0.80660699       1.57506622       0.39089544      -0.40904174       1.52820121       0.54008050      -0.80271683
H       -1.35120954       0.95639178      -1.49886908        0       0.05046044       0.14151074       0.22402919      -4.13134205      -0.74506039      -0.02463772      -4.39236719      -0.97167172       1.01562054
H       -0.58725654       2.60904459      -1.12323521        0       0.00663453       0.10762658       0.54459979      -0.39001940      -0.66653211      -1.26010727      -0.43202788      -0.99553854      -1.55932903
H       -0.25307825       1.14574090      -2.52064243        0       0.66939337      -0.16908779       0.54698613       0.27956447       1.70261239       1.18424532       0.98831987       1.97308282       0.79494412
12
Properties=species:S:1:pos:R:3:molID:I:1:momenta:R:3:force_mace:R:3:forces_xtb:R:3 Nmols=1 Comp=DMC(1) energy_mace=-587.5477031852283 energy_xtb=-586.9570561057138 pbc="F F F"
C        0.21000455      -0.26701335      -0.13031216        0       0.60298893      -0.23713679       0.06926181       0.48022166       3.80661103      -0.65382875       0.74854806       2.99116386      -0.54643156
O        1.10929786      -0.98437357      -0.37282407        0       2.30673630      -1.25273313      -0.91545815       0.73289290      -2.18824650      -0.38643610       0.63684272      -1.82862604      -0.05087038
O       -0.81934430      -0.39376556       0.67376733        0      -1.04203049       0.63487006       1.20423932       2.37023000      -1.52232636       1.50556834       1.79547161      -1.44082800       2.01395229
O        0.35208591       1.04090330      -0.49456277        0       0.43604865      -0.24777697       0.36780980      -4.10344654       0.35085509      -2.30057757      -2.90096962       0.52744451      -2.17079975
C       -0.20951491      -0.95198982       1.97653598        0      -1.11991886      -0.16465649       1.95843079      -4.30211511      -3.34723853      -2.88695487      -3.82143305      -3.87150029      -2.94801399
C       -0.67372727       1.50622576      -1.66244899        0      -0.52437572      -0.47572282      -1.48314003       5.92631860      -1.70628870       1.61850245       5.14932739      -1.32729184       0.91974200
H       -0.90823668      -0.52115192       2.54758107        0      -0.18971791       0.45016967       0.52265654      -1.34488303       1.91032518       3.16574936      -1.81749415       2.13331023       3.03856961
H       -0.69387679      -2.04263228       1.97240515        0       0.25010245      -0.37060777       0.24218352       1.51186372       1.22106898      -0.12673935       1.58925092       1.35319013      -0.10108945
H        0.77830392      -0.97703434       2.30958180        0      -0.22708460       0.42642943      -0.43822463       1.33237249       0.46144360      -0.13707878       1.30787256       0.50414117      -0.63144358
H       -1.70239213       1.26033893      -1.58629838        0       0.32355890       0.46176603      -0.48555222       0.17980664      -1.28958810      -0.31008066      -0.22304938      -2.38284763      -0.53366060
H       -0.85757357       2.47888877      -1.44156115        0      -0.34808884       0.08466822      -0.74402980       0.15301706       2.26959776       0.51224951       0.62183643       3.63691789       0.73888377
H        0.25234906       1.44959941      -2.39659027        0      -0.46821881       0.69073057      -0.29817694      -2.93627839       0.03378654      -0.00037358      -3.08620349      -0.29507398       0.27116163
12
Properties=species:S:1:pos:R:3:molID:I:1:momenta:R:3:force_mace:R:3:forces_xtb:R:3 Nmols=1 Comp=DMC(1) energy_mace=-587.5984408015698 energy_xtb=-587.2935510005223 pbc="F F F"
C        0.29499860      -0.20732632      -0.16068382        0       1.84178542       0.54248512      -0.35254480       0.63536678      -1.67584877       0.91564572       0.73134391      -2.61133258       1.17477222
O        1.17992986      -1.02847476      -0.41517528        0      -0.43199862       0.68176207      -0.07370604      -2.97365621       2.05452555       0.68059867      -2.81322780       2.16537055       1.08336176
O       -0.78248828      -0.41748290       0.80480451        0       1.46299353      -1.47023403       1.92898086      -0.05828653      -0.50187816      -2.28270230       0.10084097       0.16989102      -2.16211923
O        0.29817997       1.03816576      -0.54580290        0      -1.74661655       0.31184551      -2.42297238      -1.77479111       1.16912762      -2.98314407      -2.05318221       1.65617962      -3.31162668
C       -0.46151924      -0.93673504       2.08749725        0      -2.60118437       1.51118782       0.93065347       5.52920170      -1.16657910      -4.19132189       5.70663987      -1.55254214      -4.01166443
C       -0.56855898       1.49790145      -1.72249386        0       0.85815764       0.11181139      -0.79838440      -2.14138405       0.17405717      -2.39989348      -2.30369443       0.32000632      -2.52180091
H       -0.75100426      -0.37320324       2.84450203        0       0.22867651      -0.08400290       0.09063255      -2.25807835       2.13922705       3.12816051      -2.19966847       2.07311738       2.97094550
H       -0.33352913      -2.01880926       2.23430343        0      -0.00547253      -0.17955835       0.32721908      -1.08640635       0.14299245      -0.35987233      -1.13640068       0.21647186      -0.31082788
H        0.64307006      -0.63647177       1.95731046        0      -0.48806578       0.05683299       0.16301264       0.08649260      -0.74927656       2.25116550      -0.25424430      -0.69790359       1.58285401
H       -1.57382483       0.95419929      -1.95739687        0       0.52518893      -0.89861953       0.02409755       1.42172800      -0.69225533       1.56015737       1.76595829      -0.42361133       1.36833980
H       -1.07297143       2.51508292      -1.76508538        0       0.12922468      -0.10382355       0.40400509       1.25586277      -0.11056248       1.77872162       1.42051423      -0.43621852       1.79495534
H       -0.21352085       1.56335973      -2.84998842        0       0.22731113      -0.47968654      -0.22099362       1.36395075      -0.78352944       1.90248467       1.03512061      -0.87942860       2.34281051
12
Properties=species:S:1:pos:R:3:molID:I:1:momenta:R:3:force_mace:R:3:forces_xtb:R:3 Nmols=1 Comp=DMC(1) energy_mace=-588.5099273503437 energy_xtb=-587.6963833811745 pbc="F F F"
C        0.38133717      -0.15480229      -0.11154981        0      -0.47941747       0.68312480       1.41801979      -2.50271576      -1.35687539       1.14108901      -2.34407913      -0.78198621       0.22286874
O        1.17244408      -0.97994135      -0.42786636        0       0.65443929       1.07946378       0.15622952       0.22652928       0.63711027       0.29260676       0.22760635       0.48600390       0.47261788
O       -0.71060568      -0.47554973       0.82239306        0       0.89987447      -0.66773092      -1.43913828       1.43878983       1.22405219      -1.50984946       1.56916706       1.92400178      -1.68820854
O        0.19110047       1.05926579      -0.67804519        0      -0.99529786       0.11248244      -1.01649745       1.52433466      -0.06234387       3.04636556       2.92998730      -1.98630833       5.13610940
C       -0.53112935      -0.86388042       2.14667323        0       0.50695574       1.10421484       1.19524647       2.64685829      -0.63925236       0.73978692       2.69290222      -1.03026465       0.75192529
C       -0.56480019       1.41331380      -1.79576280        0       0.03052136      -2.56501849      -0.31613725       2.16411948      -0.79122418       1.32376820       1.58150509      -0.25372396       0.63923577
H       -1.02089766      -0.24527712       2.86530442        0      -0.48537095       0.04364626      -0.55838285      -0.94947559       0.47985165      -0.11939836      -1.10295832       0.55324074      -0.00315065
H       -0.85766039      -1.91704706       2.20841944        0      -0.71500720       0.10550858      -0.09819229       0.10650959       0.34969069       0.07476226       0.26885277       0.36266088       0.36113966
H        0.57454469      -0.74780275       2.55886240        0      -0.10586173      -0.26560919       0.56900078      -1.30867348      -0.41833806      -1.08819858      -1.52158435      -0.64345416      -1.25513364
H       -1.06149000       0.46039356      -1.87670219        0      -0.24056428       0.04970714      -0.31168109      -2.19878821       0.58640835      -1.03580871      -2.13233403       0.86388104      -0.92881680
H       -0.70967770       2.39752105      -1.27589643        0       0.34909409      -0.16205746       0.16193335      -0.88478659      -0.93501482      -1.15506421      -1.73066642      -0.39958554      -2.26517970
H        0.25594926       1.36838615      -2.50403359        0       0.58063454       0.48226822       0.23959930      -0.26270150       0.92593553      -1.71005937      -0.43839855       0.90553452      -1.44340741
12
Properties=species:S:1:pos:R:3:molID:I:1:momenta:R:3:force_mace:R:3:forces_xtb:R:3 Nmols=1 Comp=DMC(1) energy_mace=-589.1080465321993 energy_xtb=-583.7747966064655 pbc="F F F"
C        0.30297277      -0.16287805      -0.03467671        0      -0.83345931      -0.97844525      -0.13088712       1.62687802      -0.65086639      -2.43805839       3.11955489      -0.39442210      -3.04251498
O        1.18905706      -0.87192388      -0.36459258        0       0.67055762       1.51377640       1.52745314       1.77541378      -0.91249044      -0.12464490       2.10616356      -1.32656709      -0.10188697
O       -0.62840500      -0.49637597       0.71525128        0       1.03140420      -0.54039649      -0.61769816      -2.43223121      -1.04179254       3.56946466      -2.99851159      -0.28639147       4.12893463
O        0.14988597       1.05440156      -0.66791370        0      -0.87321626       1.01053613       0.20926544      -0.70224507       2.30294110      -0.32051200       6.08637612      -5.00814706       8.69865441
C       -0.54495172      -0.77580504       2.19413486        0      -1.88861182       1.21872357      -0.26550920      -0.47028044      -0.10029123      -1.76934936       0.02198232      -0.61144350      -1.49340074
C       -0.45920678       1.19000742      -1.83557118        0       1.97903361      -2.22278732      -1.17321481      -1.66534296       1.03753644      -0.96777942      -3.66813818       0.31373422     -10.16282021
H       -1.20224580      -0.01607153       2.50073625        0       0.44296290       0.26628613       0.03711856       0.06601671       1.40526873       1.40981052       0.12704734       1.67637345       1.26784821
H       -1.21402810      -1.59615713       2.31679251        0      -0.08913538       0.12355142       0.40135093       0.20615734      -1.11145368       0.10300469       0.04188572      -1.43967839       0.00975356
H        0.43752625      -0.96195523       2.70855802        0       0.04689870      -0.11887638      -0.00580992      -0.63143098       0.47827373      -0.87804891      -0.93890187       0.59714811      -1.07870276
H       -1.44399061       0.87017627      -2.26773590        0       0.21500904       0.72873222      -0.18781330       0.97993695      -0.62174001       0.79978154       1.05866365      -1.45962209       0.96913101
H       -0.66430028       1.74794927      -1.08740780        0      -0.04961034      -0.85855341       0.52035014       0.55112697      -0.39006626       0.81107273      -5.91425769       8.68722825       1.00048455
H        0.07211447       1.67112598      -2.64771230        0      -0.65183296      -0.14254700      -0.31460571       0.69600090      -0.39531946      -0.19474119       0.95813572      -0.74821233      -0.19548072
12
Properties=species:S:1:pos:R:3:molID:I:1:momenta:R:3:force_mace:R:3:forces_xtb:R:3 Nmols=1 Comp=DMC(1) energy_mace=-588.6823899444584 energy_xtb=-579.9103726335375 pbc="F F F"
C        0.32084079      -0.22069567      -0.05196789        0       0.56257826      -0.10746613       0.50086975      -0.45412809       0.77919623       0.65232454       1.32097164       0.79753626       0.40904834
O        1.30990780      -0.83363070      -0.30880178        0       3.18140679      -0.24280469       0.33685876      -0.78884521       0.27490968       0.22904194      -0.70587944      -0.41163613       0.11729080
O       -0.69948791      -0.56194676       0.78283429        0      -3.25973945      -1.42832654       0.97683696      -0.38369409       0.21610077      -2.82785127      -1.39403888       0.53034325      -2.31927683
O        0.09806793       1.12101611      -0.68139307        0      -0.78339661       0.73941795       0.27057635      -0.23403253      -1.55498313      -0.02935421       4.90062227      -1.25395037      10.60847685
C       -0.67804120      -0.66055427       2.16016352        0      -1.11238042       2.01017505       0.00556904       3.40052535       2.49853180       0.75882068       3.49731907       2.34046969       0.61825325
C       -0.34280036       1.05905319      -1.89751927        0       0.72119897      -1.46248501       0.60824574      -2.54239211       0.98633525       1.67141028      -0.48110114      -2.59926201     -12.51477534
H       -0.72065183       0.36421213       2.64868069        0       0.57805783      -0.11053601      -0.38038085      -0.68454952      -0.68153378      -0.51624771      -0.72679234      -0.83668362      -0.47427071
H       -1.28322916      -1.37645998       2.59388459        0      -0.16074682       0.29571092      -0.06702655      -1.58138449      -1.13863341       0.21488978      -1.59981640      -1.09316922       0.26264945
H        0.35392212      -0.93271263       2.37003304        0       0.21117539      -0.00388446      -0.40038293       0.51529084      -0.58589442       0.80714788       0.51534144      -0.53777964       0.66124986
H       -1.19073810       1.15644462      -2.47538075        0       0.67916363       0.27226861      -0.42593577       1.96758024       0.02781261      -0.43181162      -5.92943636      -2.88980664       1.17620294
H       -0.92505579       1.30583784      -1.15298137        0      -0.63352414       0.20337449      -1.01897589       1.07100033      -0.46115364       0.10890454      -5.76792400       3.43167394       3.55733241
H       -0.16974830       1.46900457      -2.81572486        0       0.01620657      -0.16544420      -0.40625461      -0.28537072      -0.36068795      -0.63727482       6.37073415       2.52226449      -2.10218103
12
Properties=species:S:1:pos:R:3:molID:I:1:momenta:R:3:force_mace:R:3:forces_xtb:R:3 Nmols=1 Comp=DMC(1) energy_mace=-588.9018099563975 energy_xtb=-574.6189624349363 pbc="F F F"
C        0.36388698      -0.20272913      -0.00548493        0       0.10129966       0.13328896       0.38412028      -2.00344592      -1.17393793      -0.73438479      -0.28568030       0.40159118      -0.86563112
O        1.39856290      -0.80025224      -0.24248299        0      -0.69609846       0.68149673       2.12487838      -3.43762448       1.93366975       1.18601956      -2.85890212       0.76799315       1.03718571
O       -0.88397090      -0.61472498       0.74163703        0      -0.99216527       0.28029986      -2.35516311       5.44379676       2.28516770      -1.67955091       3.69713667       1.80279016      -0.85212591
O        0.02406923       1.10867847      -0.67851804        0      -1.66618617      -0.80432127       0.07539461       0.73028130      -1.87436637       0.58028440      10.50548778      -0.71800943      15.31963897
C       -0.64634933      -0.55560521       2.16348741        0       1.38073185       0.51034783       0.13697737      -0.88388645       0.04715454      -1.25257030      -0.45694565       0.28359159      -1.08641269
C       -0.27012561       1.02206335      -1.90763072        0       0.72189634       0.01428182      -1.07666497      -1.11251934       0.31630203       0.37706694      -6.47451167      -1.44801556      -4.73946839
H       -0.49598690       0.49086708       2.60861155        0      -0.23553784       0.05369635      -0.12799440      -0.30484761      -1.08889885      -0.71820526      -0.32988618      -1.37565139      -0.84781149
H       -1.54719147      -1.06358294       2.46468888        0      -0.34386037       0.52640405      -0.06971991      -0.32403504       0.20214859       1.00939666      -0.25819001       0.16117725       0.94123207
H        0.19952345      -1.19502773       2.29502988        0      -0.54922467      -0.25085937       0.26827357       0.89600802      -0.29582514       0.92595755       0.71812683      -0.19854094       0.81261182
H       -0.25164865       1.28428584      -2.96149684        0       0.99404878       0.17873053      -0.27028295       0.36159836      -0.46637270       1.97334950     -14.65114821      18.95292690      -7.70056588
H       -1.02996071       1.13044544      -1.30587748        0       0.39773015      -0.41421098       0.58156690      -0.13811343       0.23995575      -0.05942151      -8.75485237       0.02260425      -3.11672793
H        0.09552895       0.92628501      -2.82124317        0       0.88736599      -0.90915452       0.32861422       0.77278782      -0.12499736      -1.60794186      19.14936523     -18.65245717       1.09807484
12
Properties=species:S:1:pos:R:3:molID:I:1:momenta:R:3:force_mace:R:3:forces_xtb:R:3 Nmols=1 Comp=DMC(1) energy_mace=-588.8990903557392 energy_xtb=-577.5880574011356 pbc="F F F"
C        0.23659039      -0.20459611       0.00323733        0      -1.95969552       0.40335873      -0.31836798       2.10228712       0.29332222      -1.36090842       2.14301503       2.04761433      -1.85593340
O        1.30502671      -0.72085351      -0.10124800        0      -1.17646781       1.29886154       2.74164964       0.19960082      -0.35019029       0.24273722       0.80137528      -0.64155701      -0.02911210
O       -0.80386741      -0.56959479       0.60986334        0       2.24696233       0.15391649      -1.29090101      -1.19019553      -1.77756737       3.91347849      -2.26135981      -1.70363994       4.40303340
O       -0.04100709       1.01597441      -0.63800279        0      -1.07691744      -0.99281433       0.63914809      -1.65091329       0.77003392      -1.94459366       4.46392151      -1.13263803       8.00536486
C       -0.63880251      -0.55427369       2.12149600        0      -1.15978325      -0.35118792      -1.09292689      -0.30707805       1.85719072      -1.51161008       0.05790101       1.39271651      -0.95477471
C       -0.18067950       0.99160165      -2.02761384        0       2.07288648      -0.98407946      -1.17261757       2.15498436      -0.18722780       1.83786519      -0.72145938       1.95051552      -5.80545695
H       -0.49460087       0.54078851       2.26717124        0       0.43681680      -0.00295497      -0.32865766       0.94635638      -0.57778912       0.56480568       1.27022526      -0.62290134       0.33196209
H       -1.60246109      -0.56515489       2.54099032        0       0.23645808       0.34158528       0.07410586      -1.12772381      -1.01546741       0.21346136      -1.53979666      -1.17888604       0.21972945
H        0.04548828      -1.26955440       2.64318986        0      -0.19103249       0.47635601      -0.11468712      -0.30253853       0.46750980      -0.93571115      -0.36709445       0.79578979      -1.12669376
H        0.80115826       1.03772260      -2.52864999        0       0.59891370      -0.73711548       0.90122026      -2.59731015      -1.94713617       0.43502677       7.29155718      16.45235718      -1.09764155
H       -0.84303157       1.07371028      -1.30588845        0      -0.46294805       0.46974373      -0.25018369       0.97695635       0.44593952      -0.46324529      -7.23952002       0.94729840      -0.99473411
H        0.57272421       0.49354207      -2.50865030        0       0.43480717      -0.07566961       0.21221807       0.79557434       2.02138196      -0.99130610      -3.89876495     -18.30666937      -1.09574322
12
Properties=species:S:1:pos:R:3:molID:I:1:momenta:R:3:force_mace:R:3:forces_xtb:R:3 Nmols=1 Comp=DMC(1) energy_mace=-588.6241476806176 energy_xtb=-578.5736667768296 pbc="F F F"
C        0.21910604      -0.14936363      -0.08734173        0       0.64701516       0.23935682      -0.88461600      -1.47390373      -1.04698814       3.40980483      -1.79231104       0.93410540       2.83499840
O        1.25961766      -0.67023818       0.03917368        0       0.06084539      -0.01575587       2.08819820       2.86007503      -0.48178101      -1.20056166       3.34888891      -0.53791535      -1.47929792
O       -0.77439627      -0.64162535       0.66617466        0      -1.67193101      -1.51494409       1.85029726      -2.33091863      -0.14954010      -2.28487208      -3.14575064      -0.19194954      -1.60620053
O       -0.17670448       0.98075611      -0.64731587        0      -2.49739097       0.25248260      -1.33620868      -0.65917141       1.14096182      -4.00998091       1.77833213      -3.75154295       5.57224614
C       -0.70892906      -0.46006451       1.98665526        0       0.45174584       1.99054389      -1.23110663       4.98018082      -0.74344716       3.18885983       5.22342149      -1.00504284       3.40165788
C        0.02428978       0.92153323      -2.00409465        0       2.23995336      -0.44649954       1.06168741       3.30737039      -1.35403933       0.60660950      -2.41553631       0.06872802      -1.77203174
H        0.01580324       0.38370279       2.28091256        0       0.09446480      -0.34967541       0.33065923      -1.44975905       0.11967835      -0.02627256      -1.67787483      -0.05885434      -0.39950302
H       -1.62449746      -0.49516249       2.50158653        0       0.17325935      -0.04294233      -0.17776489      -1.08271837       0.12933395       0.18161743      -0.90834586       0.16323736       0.27549010
H        0.04893310      -1.29864538       2.42606120        0      -0.26152552      -0.26657144      -0.26643533      -1.67966509       0.59721394      -0.41353364      -1.75894013       0.65014879      -0.34139991
H        1.03442489       0.57107396      -2.18665914        0       0.21864024      -0.27565445      -0.08177742      -1.84107406       0.56628207      -2.46623517      12.79801913       2.10877993      14.52305558
H       -0.70471463       1.54020144      -1.87301713        0       0.48391463       0.35411274      -0.60475818      -0.83714030       0.72347707       1.03823848      -3.58252159       5.07555633      -4.14148771
H        0.74185879       0.53102625      -2.65686997        0       0.06100871       0.07554709      -0.74817497       0.20672441       0.49884854       1.97632595      -7.86738125      -3.45525081     -16.86752727
12
Properties=species:S:1:pos:R:3:molID:I:1:momenta:R:3:force_mace:R:3:forces_xtb:R:3 Nmols=1 Comp=DMC(1) energy_mace=-588.5117210180531 energy_xtb=-577.2498581468662 pbc="F F F"
C        0.20358707      -0.17184444      -0.04017310        0      -0.67698158      -1.17163706       2.08442245       0.72177942      -1.79037150       1.53232176      -0.95213778       0.32722757       1.54869471
O        1.30330403      -0.68741345       0.11999713        0       1.02881843      -0.04223125       0.11000978      -2.43574669       2.22654185      -1.45344258      -1.02406898       1.75970003      -1.64279319
O       -0.84843813      -0.68160945       0.66741988        0      -0.70500162       0.44277952      -1.06315478       1.53399558       2.50973838      -1.19220280       0.27303840       2.24634553      -0.29279090
O       -0.29113063       1.00828895      -0.82052230        0      -0.97776508      -0.12398190      -3.64654200       1.51675521      -2.10730613       0.67727191      -0.65536709      -9.37526880      16.92770549
C       -0.62691180      -0.40771374       2.04693606        0      -0.64309888      -0.36554848       2.40374232      -2.27317261      -0.51334642       1.25924751      -1.86438415      -0.09581002       1.86007471
C        0.20564587       0.89773102      -1.95560867        0       1.69977698       0.34061190      -0.12159011       1.12964661       0.61529322      -1.61509048       3.55737381       1.87269653      -9.20489971
H       -0.11751414       0.53360665       2.54784053        0      -0.22107801       0.31437877      -0.17505877      -0.05136559      -1.51791215      -1.38282940      -0.07581762      -2.05821568      -1.85396445
H       -1.63834123      -0.31552472       2.44642440        0       0.47022472       0.73234548      -0.08980912      -0.26642261       0.56766477       0.13847788      -0.65357675       0.52425209      -0.00156106
H       -0.45754159      -1.41919646       2.35297231        0      -0.09048302      -0.07334868       0.37459676       1.41052034      -0.28274545       1.44801498       1.68380792      -0.20871322       1.33695718
H        1.07143021       0.55540727      -2.53239354        0      -0.06407979       0.17240499      -0.46185819      -1.82071228       0.50792231       0.65047394      10.84489659      -0.86667582       5.91500227
H       -0.39402743       1.64667193      -1.89302434        0       0.49293665      -0.31554197       0.47758548      -0.46822774       0.41897634       0.34726031      -2.40205955       7.99830152      -5.64243672
H        0.48810846       0.66745234      -2.87695135        0      -0.31326880       0.08976868       0.10765618       1.00295037      -0.63445524      -0.40950305      -8.73170480      -2.12383975      -8.94998833
12
Properties=species:S:1:pos:R:3:molID:I:1:momenta:R:3:force_mace:R:3:forces_xtb:R:3 Nmols=1 Comp=DMC(1) energy_mace=-588.08713034275 energy_xtb=-569.8642349957099 pbc="F F F"
C        0.21535534      -0.27358811       0.01785992        0       0.54893446      -0.28343051      -1.18817521      -2.85354925       3.26126032      -3.10533234      -4.07689261       0.16851733       0.07461183
O        1.31211991      -0.65053612       0.11322316        0      -0.60243591       1.15071895      -0.23936840       0.98102250       0.03876661      -0.44331670       3.34061811      -0.38812759      -0.30921711
O       -0.86840167      -0.60515970       0.62689272        0      -0.73778104       1.06193882       0.75700890       0.07683563      -1.13013027       3.73204823      -0.58140352      -0.46487556       3.07868708
O       -0.30805053       0.89119046      -0.94588510        0       0.40534942      -4.23885107       0.41176229       0.84832958      -3.90152108       3.78927283      -8.80679126     -10.82074735      17.40738205
C       -0.71024484      -0.42023166       2.22030573        0      -1.86623095       0.58445149       1.13005111      -0.64372818       3.41068175      -3.31998263      -0.58411171       2.91189340      -1.15910294
C        0.32601790       0.92794587      -1.97486141        0       2.02390990       0.55464791      -1.31843588       1.82535077      -0.25458107      -3.88608514      11.15404066       6.71451579     -10.92307561
H       -0.06969578       0.46053592       2.08531662        0       0.53255350      -0.04315135      -0.28662538       0.81475452      -0.45850959       1.50053116       1.16135751      -0.62550871       0.83904348
H       -1.56258332       0.20479830       2.51850638        0       0.20168361      -0.06690082      -0.21124473      -0.43494488      -1.16703362      -0.07904140      -0.79808096      -1.17728943      -0.03065460
H       -0.41119964      -1.10087533       2.99922049        0      -0.03145490       0.57240234       0.38366530       0.09312731      -0.75965843      -0.68138877       0.06839812      -0.59816310      -0.75900554
H        0.73765692       0.84101731      -2.95477606        0      -0.59722618       0.34551651      -0.22625425       2.79970477       1.98657136       2.52754350      33.41735462      13.20322619       1.25046141
H       -0.29232314       1.69493244      -1.34269775        0       0.26832721       0.17868709       0.18705726       0.44329688       0.37340589      -0.79467721      -0.00636367       7.42623606      -3.29326862
H        0.31401609       0.65569506      -2.98215818        0      -0.14562912       0.18397065       0.60055900      -3.95019963      -1.39925187       0.76042846     -34.28812531     -16.34967705      -6.17586143
12
Properties=species:S:1:pos:R:3:molID:I:1:momenta:R:3:force_mace:R:3:forces_xtb:R:3 Nmols=1 Comp=DMC(1) energy_mace=-588.0648383999328 energy_xtb=-576.4751779719053 pbc="F F F"
C        0.14995197      -0.25792160      -0.09929947        0      -0.86791360      -0.63507001       0.16419764       3.58357445      -3.01256813       5.24387145       3.25415379      -2.87696995       3.60420474
O        1.32415193      -0.59021231       0.08346697        0      -0.03212124       0.89622701      -1.21646750      -2.56116943       0.16303583      -0.76712079      -1.77384478       0.06336363      -0.13204501
O       -0.88740882      -0.58518528       0.76710040        0       0.61724107       0.14247587       2.92540609       1.20104403      -0.70926776      -0.02039056       0.29893912      -0.83549765       0.28301147
O       -0.25284725       0.59960262      -0.90259921        0       0.92674289      -3.54993796      -0.20682465      -0.94401029       4.81105576      -5.41436631      -6.89864132      -3.57410276       0.98352179
C       -0.80132364      -0.26679385       2.16886015        0      -0.71439655       2.93982424      -0.97328007       0.39410398       0.96049912       0.29329217       0.47150832       1.07080337       0.71331896
C        0.46383365       0.98430342      -2.04372572        0       0.87081454       1.01429135      -0.39610202      -0.98955773       1.74206184       3.27174566       7.00003164       6.13154352       8.34462131
H        0.20469161       0.14737438       2.40306489        0      -0.30161046      -0.28954900       0.39707808      -1.29607836       0.30600539      -0.65221092      -0.64508235       2.06818363      -1.23434169
H       -1.81206041       0.21302135       2.30380649        0       0.01323864       0.04571368      -0.36766829       1.32266310      -0.12888817       0.39507918       1.55620765       0.44607425       0.37817609
H       -0.59883021      -0.83744583       3.08482896        0      -0.52504757      -0.18632471      -0.47141023      -0.69091750      -0.61435232      -1.23426202      -1.38139206      -2.60048462      -0.84110680
H        0.28130060       1.31630237      -3.09829642        0      -0.41157495       0.58797726       0.04933249      -0.01691396      -2.91290872       2.91318784       0.64394659      16.12327201      -5.01726478
H        0.03973238       1.86829187      -1.05668382        0       0.54664789      -0.67934325      -0.13933970       0.31265752      -1.89633955      -0.94941116       2.48903882       1.95272978      -4.20899301
H        0.18804246       0.77005767      -2.94362305        0      -0.12202068      -0.28628447       0.23507815      -0.31539579       1.29166671      -3.07941454      -5.01486542     -17.96891521      -2.87310308
12
Properties=species:S:1:pos:R:3:molID:I:1:momenta:R:3:force_mace:R:3:forces_xtb:R:3 Nmols=1 Comp=DMC(1) energy_mace=-587.9352913784737 energy_xtb=-577.9904520884745 pbc="F F F"
C        0.17640854      -0.40830644       0.05271820        0       0.62884061      -1.57037299       2.12041366      -2.00583401       2.85753886      -1.85667775      -3.73845280       3.86259469      -4.43120903
O        1.30083766      -0.55632078       0.00539734        0       0.46158351      -0.37199066      -0.43266665       5.41542195      -2.34424644       1.02088357       7.69263212      -2.45635357       1.61732350
O       -0.77719478      -0.60500947       0.87215942        0       2.21019355      -0.56057825       0.61488115      -1.14689026      -0.11300127       0.11387311      -1.24337409      -0.09046690      -1.38817885
O       -0.24443705       0.47956772      -1.02831645        0      -0.69788979      -0.39196543      -2.62662924      -1.48448976       0.37624390       0.63714211     -10.95260937      -7.12467703       6.60612915
C       -0.86637200      -0.04209018       2.11319747        0      -1.17654047       1.71044119      -0.02506214      -2.13954679      -1.69168978       2.95146375      -2.27417522      -1.82277073       4.33602823
C        0.44762136       1.04209231      -2.01756498        0      -1.47668396      -0.13168645      -0.22394240      -2.30330127      -0.26506189      -0.73190567       5.79386616       0.73696804      -3.28758281
H        0.02163926       0.33956941       2.71640182        0      -0.22465657       0.40148157      -0.15947732      -0.52272615      -0.75434001      -1.24762657      -0.65496624      -0.87958470      -1.27108179
H       -1.72356166       0.72127051       2.35022505        0       0.44278790       0.72179158       0.05830592       1.20081544      -0.92405834      -1.09109426       1.31450764      -0.98105954      -1.25826427
H       -1.30728887      -1.11540257       2.51182701        0      -0.72614106      -0.07025480      -0.41413575       0.95851458       2.35520041       0.42925890       0.89586305       2.68196280       1.15846928
H       -0.27354255       1.42471983      -2.77087105        0      -0.20062203      -0.04231961       0.18230019       2.33845756      -2.02188193      -0.18846270      -7.76173245      12.84788546       3.54648680
H        0.65071551       1.31651969      -1.09227895        0       0.71932660      -0.11443087       0.62298113      -0.01779054       0.43371618      -0.66321856       5.10617959       5.71669314       1.05002657
H        0.00602558       0.89869294      -2.94724092        0       0.03980172       0.41988471       0.28303147      -0.29263075       2.09158032       0.62636407       5.82226161     -12.49119166      -6.67814678
12
Properties=species:S:1:pos:R:3:molID:I:1:momenta:R:3:force_mace:R:3:forces_xtb:R:3 Nmols=1 Comp=DMC(1) energy_mace=-588.3642017975957 energy_xtb=-575.3431098722089 pbc="F F F"
C        0.21817837      -0.37185822       0.05995917        0       1.21029751       1.71162936      -1.63318292       2.59176477       0.74652613      -1.32471168       0.94297458       1.51768722      -3.23816295
O        1.41185652      -0.60399516       0.01891840        0       1.92275560      -1.39265722       0.40661575      -2.55006785      -0.19738930       0.95488414      -0.79918526      -0.01392922       1.07788144
O       -0.73774480      -0.64858614       0.96138287        0      -0.83715414      -0.25598452       2.05019562       0.18009420      -0.57607182      -1.69958117       0.51335277      -0.70546292      -3.52700471
O       -0.28366030       0.42285691      -1.08436736        0      -0.28696839      -1.72983223       1.26194527      -0.33445411       0.46826846       0.85491174     -11.72290765      -9.09811279       8.98478879
C       -0.97385592       0.04514697       2.15555517        0      -0.23817798       2.26375891      -0.20450810       2.57043909       2.00164552      -1.56308782       3.12715236       2.73741672      -1.41054656
C        0.32730487       1.00992186      -2.04736346        0      -1.15344793      -0.76474683      -1.21245735      -2.97632099      -1.24576735      -5.40824561       4.21960272      -2.56756438      -6.52331003
H        0.13915595       0.28746749       2.46168766        0       0.11381696      -0.53832145       0.05012769      -1.74813309      -0.72696398       1.07380425      -2.13771247      -0.97060336       1.20569360
H       -1.35687862       1.08850715       1.96042349        0       0.02904675       0.14024300      -0.49843413      -0.27334580      -0.85904046       0.15733101      -0.27056659      -0.80252963       0.05046898
H       -1.71223196      -0.65802162       2.38167969        0      -0.81820572      -0.20163241       0.40958436       0.01671823      -0.01575674       1.18075277      -0.70032310      -0.31688114       2.53698282
H       -0.16298484       1.59837182      -2.82236866        0       0.52047186       0.18909403      -0.57216489       0.06093578      -0.52341436       1.30262443     -21.16028983      19.01029959       8.31753060
H        0.69947833       1.29068148      -1.29380625        0      -0.60394240       0.07993701      -0.54447931       2.10342411       1.40546595       6.15141094       9.86705261       8.33827068       6.91769861
H        0.18844000       1.28027135      -2.99158698        0       0.14150787       0.49851235       0.48675801       0.35894566      -0.47750205      -1.68009300      18.12084987     -17.12859077     -14.39202059
12
Properties=species:S:1:pos:R:3:molID:I:1:momenta:R:3:force_mace:R:3:forces_xtb:R:3 Nmols=1 Comp=DMC(1) energy_mace=-587.4813665620945 energy_xtb=-575.92278335195 pbc="F F F"
C        0.37346668      -0.29380590      -0.02105820        0       1.51014224      -0.56949340       0.15522522      -3.47970200      -2.47300814       2.84184239      -4.42491323      -0.18422791      -0.13363517
O        1.48593315      -0.67902593       0.06030999        0       0.32679391      -0.55359743       0.56614829      -0.73302303       0.55106680       0.02888267       0.71629128       0.19391759       0.05438579
O       -0.74280528      -0.66391618       0.96606632        0       1.11875839      -0.25647331      -1.79190202       3.19414678       1.76256994      -1.46998143       1.35530635       0.83750872      -1.02886738
O       -0.32117418       0.36948828      -1.01531809        0      -0.49568576       0.67909251       0.39736626       1.50854046       3.08428610      -1.72502790      -4.54704142      -8.75916385       7.03468514
C       -1.01223762       0.18249986       2.09785895        0      -0.65459760       0.62613290      -1.43800210       3.57132907      -0.51147614      -0.83248496       3.64053312      -0.39318280      -0.60218519
C        0.21467901       0.91560746      -2.13896427        0      -1.16460503      -0.92474744      -0.03189611       1.44856587      -0.73920840       4.65697107       6.92920559       1.13850756       4.96154921
H       -0.27762866      -0.10932716       2.98889772        0      -0.33450372       0.03838121       0.82589731      -0.40293166       1.03414914      -2.01812447      -0.02760619       1.65777715      -1.96546423
H       -1.27403899       1.18630685       1.75277578        0       0.39996718       0.30226992       0.20038242       0.81202122       0.03381846       0.09986068       1.29194724       0.35749110       0.34197200
H       -1.81683621      -0.04512290       2.64776895        0       0.19764605       0.86091913       0.22673083      -3.25024471      -1.36659515       1.10280002      -3.91560004      -1.89872810       0.93751012
H       -0.06417908       1.56518419      -2.77847279        0      -0.47381881       0.10743045       0.01988189       0.93449382       1.50753946      -4.00573309     -19.09049823       6.87147447       0.36468059
H        0.21600476       1.59441979      -0.96156026        0      -0.80094217       0.04574967       0.31731927      -0.79481842      -1.77824158      -0.77070838       2.52851142       3.03010830      -4.29366381
H        0.49598786       1.49768086      -2.98833815        0       0.37084533      -0.35566421       0.55284876      -2.80837740      -1.10490049       2.09170339      15.54386411      -2.85148222      -5.67096708
12
Properties=species:S:1:pos:R:3:molID:I:1:momenta:R:3:force_mace:R:3:forces_xtb:R:3 Nmols=1 Comp=DMC(1) energy_mace=-588.8073649452832 energy_xtb=-570.3203912690891 pbc="F F F"
C        0.34173962      -0.38951651       0.08490745        0      -1.48941841      -1.24055242       1.79554555       1.14401645       1.83629555      -2.46781823       0.04736181       1.51936209      -1.52356875
O        1.49956195      -0.69166453       0.08118434        0       0.14498419       0.11291274      -0.06749819      -2.15563636       0.53750124      -0.11743002       1.73920411      -0.10621871      -0.18164709
O       -0.62594511      -0.61879143       0.88706326        0       1.80078476       1.19145214      -0.40930607      -1.41871030      -0.86682829       2.12506416      -3.45158952      -1.39572808       2.15789046
O       -0.33762173       0.46770986      -1.02393948        0      -0.57684364       0.95422450       0.48308486      -0.48189632      -2.39191285       4.01483916      -7.81684888      -7.54275486      18.36609063
C       -1.00897636       0.22512533       2.02609725        0      -0.06075178       1.20407604      -0.74384287      -0.39705546       0.76164683      -1.43272208      -0.47499533       1.06290427      -0.70024230
C        0.12200223       0.82431156      -2.05651558        0      -0.33522945      -0.62738964       0.77968761       1.57586287       0.90272046      -2.18777371       6.92888095       1.91196206     -14.75845105
H       -0.46771587      -0.03863510       2.84334833        0       0.56944387      -0.53746685      -0.08078454       2.05374913      -1.23936072       1.99198304       2.55629153      -1.15946815       2.36708595
H       -0.66081568       1.22968727       1.78868570        0       0.49311034      -0.08784580      -0.13899412      -0.53939422       0.34481433      -0.12370280      -0.72645311       0.39850724      -0.04125871
H       -2.00450002       0.15506647       2.55289678        0       0.10305662      -0.19992122      -0.96274421       0.07652150      -0.08974196      -1.47340751       0.11975490       0.03501570      -2.08406439
H        0.18131847       1.23516415      -2.97712406        0      -0.06655004      -0.77593158      -0.55585517      -1.36419616      -0.75885811      -0.81987678     -26.44655321      -8.89179508     -17.93251604
H       -0.62698522       1.35485424      -1.13216477        0      -0.88806997       0.20787084      -0.79663936      -0.17755225       0.40335386      -0.08848041      -1.29691273       1.86045482       1.24875728
H        0.58247429       1.39038373      -2.74475482        0       0.30548353      -0.20142874       0.69734652       1.68429111       0.56036966       0.57932517      28.82185948      12.30775871      13.08192402
12
Properties=species:S:1:pos:R:3:molID:I:1:momenta:R:3:force_mace:R:3:forces_xtb:R:3 Nmols=1 Comp=DMC(1) energy_mace=-588.5363591069631 energy_xtb=-582.1215079656224 pbc="F F F"
C        0.31840003      -0.39334175       0.05495753        0       0.27493909       1.08948450      -2.26010741      -3.33815080       2.57388505      -1.09959269      -5.21201112       3.87498021      -1.71799022
O        1.42095052      -0.65507038       0.07196522        0      -1.52383425       1.06447758      -0.48566721       4.33420512      -1.30987096      -0.49646431       5.75728923      -1.65556002      -0.58474354
O       -0.60435204      -0.60691998       0.94790834        0      -0.37592684      -0.42452206       1.32919809      -0.09234612      -1.58734352      -0.44266812       0.31150764      -2.98849044      -1.33093324
O       -0.37561351       0.47195432      -0.89650526        0      -0.71243443      -0.43282380       1.77443759       0.74271809       0.48862376      -2.28998190       2.96824844      -6.44995851       8.13136821
C       -0.90830758       0.26852980       1.96309201        0       2.08765124      -0.18975932      -0.51956534      -3.42052740       0.29435614      -3.37678419      -4.13813116       0.77681536      -2.75346503
C        0.13173715       0.82303870      -2.08902412        0      -0.60851662       0.32390888       0.40692477      -4.63029369      -2.16878715       4.22343173      -7.73202368       2.65044328      -0.69520114
H       -0.40536037      -0.13120734       2.70793800        0      -0.66939861       0.43994731       0.23269393       1.66705438      -1.67915492       4.25924890       1.29473715      -1.69636195       4.68150745
H       -0.57300721       1.26487863       1.87391455        0      -0.08882547       0.06153002       0.08990014       0.08619153       1.28779681      -0.40278608       0.06893537       1.35932173      -0.78278596
H       -2.01652284       0.08856868       1.73244521        0       0.30508126       0.35431604      -0.17963862       0.60479380       0.84099390       1.33368373       0.73383471       1.31434624       2.30468042
H        0.44878903       0.42122941      -2.97128665        0       0.88124859      -0.64867270       0.26420845       0.87542039       0.57119542       0.63300970      -3.43568758      -7.23929614      -3.92626680
H       -0.96401514       1.19190093      -1.83611367        0       0.34608411      -0.73439432      -0.68203770      -0.34727727       0.17471956       0.21220411       1.09913522       2.60051622      -5.38927298
H        0.92344188       1.11998507      -2.51858684        0       0.08393191      -0.90349214       0.02965332       3.51821198       0.51358591      -2.55330089       8.28416580       7.45324402       2.06310283
12
Properties=species:S:1:pos:R:3:molID:I:1:momenta:R:3:force_mace:R:3:forces_xtb:R:3 Nmols=1 Comp=DMC(1) energy_mace=-587.8783855382266 energy_xtb=-583.2136062879478 pbc="F F F"
C        0.24037389      -0.27387360      -0.05276391        0      -0.15688005       0.66474185       0.62334660       3.02194644      -3.66602103       4.24169798       1.63061909      -1.98130264       3.77748970
O        1.41143687      -0.64854337       0.02829006        0      -0.48031557      -0.27639429      -1.67547751      -2.63243619       1.23312891      -1.24766024      -1.65050043       0.99447954      -1.60209789
O       -0.61299102      -0.67924472       1.00240198        0       0.07652097      -1.23509911       0.72895208       1.35800294       1.83256407       0.17393342       2.88974972      -1.22190255      -1.10205020
O       -0.40345129       0.46961656      -0.86248761        0      -0.50821937       0.89518743      -0.93879195      -1.81255010       1.83096232      -2.03549491       0.57240210      -1.49467810       6.39404878
C       -0.78489909       0.34630174       1.95461842        0       0.67033929       1.85467378       1.64719755      -3.12949980       0.41091791      -2.04326003      -3.95313457       1.46754511      -1.48971346
C        0.10361388       0.76823119      -2.03318669        0       0.87704730      -1.65847851      -0.04988308       1.18665506      -1.69893397      -1.92085004      -1.33457900       2.65623942      -4.74528544
H       -0.80441999       0.09718643       3.01039353        0      -0.25915941       0.25210436      -0.87962642       0.44623388      -0.51157164      -0.16202233       0.44136332      -0.41967158      -0.33473272
H       -0.39452723       1.35534477       1.74678130        0       0.44149621      -0.34769687      -0.31995220       0.64846999      -0.52686133       0.34494340       0.82112062      -0.76382540       0.10353880
H       -1.82690849       0.42723852       1.49770766        0      -0.03387604       0.18245447      -0.33172013       0.94785409      -0.21090789       1.19068487      -0.39803596       1.52558016       2.41619043
H        0.77663751       0.04477292      -2.41555939        0      -0.21795166       0.07616225       0.84061450      -0.15227575      -0.58921746      -0.66959286      -1.86967098      -7.48689817      -0.96308311
H       -0.98246018       0.67714690      -2.31938127        0       0.06085025      -0.24134149      -0.06146409       1.77240423       0.52382397       1.32429196       1.71644557       1.04040256      -3.48306836
H        1.23567213       0.74200536      -2.45034836        0      -0.46985193      -0.16631387       0.41680464      -1.65480480       1.37211614       0.80332878       1.13422053       5.68403164       1.02876348
12
Properties=species:S:1:pos:R:3:molID:I:1:momenta:R:3:force_mace:R:3:forces_xtb:R:3 Nmols=1 Comp=DMC(1) energy_mace=-588.6940444683731 energy_xtb=-581.1603688758124 pbc="F F F"
C        0.21253640      -0.32265216       0.08910986        0      -1.50232142      -0.89493592       1.82617017      -1.62838309      -0.04712154      -2.20804796      -2.19066408       2.07972697      -1.63275283
O        1.32737165      -0.66192373      -0.05402740        0      -0.85901914      -0.26062613      -1.31181824       1.29097690       0.02417600      -0.74247853       1.93754429      -0.24468677      -1.36112084
O       -0.55429147      -0.71928170       1.04128749        0       0.89694318       0.40584373       0.82488580      -0.98174601       3.07448891       1.69736540      -1.84173250       1.34013087       2.97018415
O       -0.49434473       0.59344975      -0.90939666        0      -0.94625069       2.23509763      -1.23501530       3.47752190      -1.76537467      -0.08729754       2.67794617      -3.39606160      11.20079994
C       -0.79484399       0.51103103       1.90534867        0       0.23924225       0.42412911      -0.57519584       0.60065598      -3.39666217       2.22985404       0.69838644      -3.06813860       2.16539557
C        0.20280603       0.56870709      -2.06248416        0       2.15265008      -2.71670961      -0.07159188       0.82905473      -0.25143214       1.27473803       0.12958134       1.48971269      -5.82176791
H       -0.78665847       0.11651707       3.06487234        0       0.21927820       0.28687386      -0.88779220      -0.28458802       0.69709741      -2.40498903      -0.27212917       0.67199044      -2.60650891
H        0.14305254       1.06160855       1.81815301        0       0.22494405      -0.23344051       0.77192381      -0.61597120       0.78277640       0.16762486      -0.75887102       0.65395628      -0.09367742
H       -1.77317620       0.88371177       1.64881238        0      -0.20595873       0.66330021       0.53860219       0.13926950       0.30947529      -0.10247814       0.27942927       0.53474376      -0.05421557
H        1.05891420      -0.00254422      -2.38986621        0       0.03206767       0.69227785      -0.32610083      -2.06368150      -1.10496326       0.04857312      -2.23497107      -8.68514109      -0.93459624
H       -0.91365083       0.51943031      -2.04547325        0      -0.26830145      -0.20891620       0.24322142       0.88170434      -0.01863597      -0.71571674       0.22986259       0.47877983      -5.71599333
H        1.29267784       0.74450392      -2.20404618        0       0.01672600      -0.39289402       0.20271090      -1.64481352       1.69617574       0.84285250       1.34561774       8.14498721       1.88425340
12
Properties=species:S:1:pos:R:3:molID:I:1:momenta:R:3:force_mace:R:3:forces_xtb:R:3 Nmols=1 Comp=DMC(1) energy_mace=-587.9273982979932 energy_xtb=-575.6311557893829 pbc="F F F"
C        0.16379513      -0.35282063       0.05290964        0       0.16437829       0.35380984      -2.20928900      -0.64228022       0.97570726       0.35884952      -1.79390150       2.05154474       1.50276394
O        1.29007487      -0.65894461      -0.13279363        0      -1.04454874      -0.08277271      -1.09910076       0.75299430      -1.11287758       0.49844334       1.42652581      -0.76844654      -1.03194240
O       -0.55787753      -0.64142968       1.13701928        0      -1.02111338       2.13338328       1.58119615      -0.05089741       1.80035802      -1.86138245      -0.75231762       1.14731599      -0.23857160
O       -0.44136558       0.63290192      -0.92650246        0       2.09629175      -1.65336955       0.46998538       1.70283318      -2.32953494       0.42494642      -0.39004251      -0.42951693      12.71772678
C       -0.79180936       0.55043351       1.83684138        0      -0.25221440       0.54638783       0.81053549       0.19456318      -2.97035920       6.80844415       0.50830514      -2.78157719       6.01899623
C        0.24021463       0.37367291      -1.98178202        0       0.30458658      -2.16849518       1.44392375       2.63233745       1.36278134      -3.37436167      -2.96648904      -2.47865236     -11.40777519
H       -0.99612099      -0.03150566       3.00151292        0      -0.61270395      -0.00087867      -0.23267557       0.06247603       1.72738701      -2.92180070       0.03296614       1.73558619      -2.45733103
H        0.06319767       1.12641155       2.13636965        0      -0.02038150       0.12884476      -0.34011555       1.02673319       0.10510635      -0.65331426       1.24882286      -0.01957491      -0.55468066
H       -1.52918588       1.28179931       1.79268848        0       0.53818131       0.05094801      -0.42602299      -1.69439231       0.35911436      -1.29317844      -1.93854248       0.27002387      -1.39702430
H        1.09525002       0.51695217      -2.69441457        0      -0.50101046       0.65190046      -0.05512507      -1.12322156      -0.50251796       3.78864160      -5.60527446       4.05135062     -12.46118335
H       -1.13043991       0.43251458      -1.92812152        0       0.56196454       0.11925798       0.21730813       0.54725485       0.10304866      -0.05614777       1.98409151      -0.15640305      -3.72247034
H        1.35684606       0.41643605      -2.16884764        0      -0.21343003      -0.07901605      -0.16061996      -3.40840069       0.48178667      -1.71913974       8.24585615      -2.62165043      13.03149192
12
Properties=species:S:1:pos:R:3:molID:I:1:momenta:R:3:force_mace:R:3:forces_xtb:R:3 Nmols=1 Comp=DMC(1) energy_mace=-587.9359006266602 energy_xtb=-571.9524109511246 pbc="F F F"
C        0.15421199      -0.33551335       0.00605508        0       0.85274853      -0.13607806       1.40976211       3.34423482      -0.95093412       3.94185005       2.65171715       0.84701420       3.39863585
O        1.30083677      -0.73038539      -0.15404313        0       0.12707137      -1.88936399       0.20321026      -1.58272886      -0.91794074       1.39403558      -0.56694422      -1.30561329       0.49636117
O       -0.58154139      -0.48759322       1.16052548        0       0.58965560       1.51982851      -0.63244520       1.05750749      -3.15597967      -1.48568707       0.41143274      -3.42158200      -0.34660236
O       -0.29762971       0.53063837      -0.88032653        0       1.62668821      -1.02167877       0.80323904      -2.40291540       1.13598182      -1.61992464      -2.13640633       4.24864769      16.07887694
C       -0.84071824       0.59632849       1.96916264        0      -1.45862828       1.74293911       0.15890782      -3.61265311       2.19197638      -3.10689126      -3.82837765       2.29496173      -3.30517769
C        0.22798345       0.25581809      -1.99069305        0      -0.26649297      -0.62051971      -2.34034624       2.32325743       2.77586383      -6.28001513      -1.76735978      -6.12089952     -11.76538433
H       -1.73952952       0.40048389       2.67205218        0      -0.59766540       0.63201236       0.17130900       2.21134975      -0.06069847      -0.08526555       2.58923058      -0.01121407      -0.19845710
H        0.07493347       1.16482317       1.98135440        0      -0.12713687      -0.04849873       0.42894779       0.17312407       0.53583423       1.77009269      -0.06748592       0.29766410       1.69788595
H       -1.50910066       1.21474584       1.15698701        0       0.37936730      -0.38680870      -0.19600208       0.68220294       0.31169830       1.62835700       0.84614440       0.27569216       1.56245982
H        0.72505642       0.92642811      -2.70550047        0      -0.27032189      -0.16143873       0.20331270      -2.90846722       2.99673231       2.25177152     -16.29833291      33.78268176       6.61595934
H       -0.90563414       0.52607177      -1.73009341        0       0.11420022       0.09525386       0.28390039       0.16434208      -0.05577510       0.52094668      -1.35819640      -0.82506145      -6.32192431
H        0.94772639       0.54196637      -2.80825068        0      -0.96948583       0.27435285      -0.49379561       0.55074601      -4.80675877       1.07073014      19.52457832     -30.06229130      -7.91263328
12
Properties=species:S:1:pos:R:3:molID:I:1:momenta:R:3:force_mace:R:3:forces_xtb:R:3 Nmols=1 Comp=DMC(1) energy_mace=-588.2924171602167 energy_xtb=-576.2192190026083 pbc="F F F"
C        0.28713177      -0.35977191       0.19038972        0       1.20448591       0.27487971       2.26823715      -0.63532339       1.52321094      -3.67451317       0.33124797       2.36025430      -2.44855848
O        1.28205095      -0.89715291      -0.11570788        0       0.59532593      -3.80608721       1.02951972       1.63331609      -1.19635599       1.03447308       2.41832189      -2.10985629       0.15207493
O       -0.53294395      -0.43897268       1.13474657        0       0.74708949       1.06291465       0.09970550      -1.50752455       1.22161590       3.73863032      -2.61543635       0.11915903       4.43958832
O       -0.24119755       0.49487150      -0.90046378        0       1.13139438      -0.26051702      -1.23004827      -0.00572342       0.10922875      -1.50257585      -2.28775984       3.38912955       6.31294024
C       -0.97899502       0.78528948       1.93970843        0      -0.49310876       2.70571150      -1.03439084       0.42179824       0.73209370      -1.91613732       0.18595513       1.47537191      -1.71570763
C        0.18807565       0.22359750      -2.18526430        0      -1.12722211       0.05167580      -1.63181355      -1.57524314       2.52335473       0.41757872      -1.78916809      -7.18108567      -3.10800720
H       -1.67458894       0.77699745       2.76425061        0      -0.30570185      -0.12303648       0.33100935      -0.81329029      -1.04441082      -0.43021407      -1.39916689      -1.75700795      -0.60884211
H       -0.19687082       1.14478323       2.64722749        0      -0.54188051      -0.17571638       0.27078026       0.21040492      -0.29137011      -1.54303547       0.78030790       0.27875206      -1.79199509
H       -1.44834338       1.50220661       1.10110404        0      -0.09530699       0.68704053       0.15105398       1.20125999      -1.20926471       1.82575177       1.46525377      -0.95949480       2.04080020
H        0.69797448       0.94185206      -2.70615150        0      -0.10732488      -0.42746232       0.23620561      -1.31425851      -1.17318367      -1.61602649      11.14762797       7.29651410       8.40100973
H       -1.07497010       0.48714677      -1.56210167        0      -0.27611483      -0.11419371      -0.42535112       1.52725977      -0.48813615      -0.79413964       0.19924075      -0.59491815      -1.83103214
H        0.36129163       0.78323844      -3.18997874        0      -0.73163580       0.12479092      -0.06490779       0.85732430      -0.70678255       4.46020813      -8.43642422      -2.31681808      -9.84227076
12
Properties=species:S:1:pos:R:3:molID:I:1:momenta:R:3:force_mace:R:3:forces_xtb:R:3 Nmols=1 Comp=DMC(1) energy_mace=-588.4808072623696 energy_xtb=-576.6505875763713 pbc="F F F"
C        0.39578500      -0.32341800       0.16675053        0       0.96584196      -0.08802865      -2.37025111      -1.71618920      -1.96845101      -1.04867892      -0.48168055       0.38236578      -1.15027450
O        1.29406385      -1.10863023      -0.00970986        0      -0.08319589      -2.50814825       2.19770728      -1.54215358       2.19771597       0.90717379      -0.78350236       0.49948074       0.70179392
O       -0.53418138      -0.33253100       1.22989253        0       0.24745381       2.04278327       2.25864035       1.80826463       1.80518075      -1.98646148       1.24895182       1.59586569      -1.86948072
O       -0.15795705       0.45691796      -0.98188366        0       1.32202619      -0.67563209      -0.89238022      -0.03458253       0.48491904       1.73902454       1.82967215       4.01149496      15.92808161
C       -1.03943980       0.90671675       1.90042927        0      -0.41776733      -0.26354294       0.41841241       3.86205951      -0.20944607      -0.64095658       3.97331881       0.28569675      -0.84720358
C        0.02481445       0.27179740      -2.23095895        0      -1.47746390       1.24928344      -1.01859006       1.30812164       1.27720783      -1.93902055      -5.68144996      -8.24268401      -5.09242867
H       -1.84262901       0.45190475       2.36994389        0      -0.43699909      -0.24207205      -0.71589248      -1.56161874       0.11613601       0.79038237      -1.57796740       0.06588715       1.00824931
H       -0.14883700       1.12834229       2.61120276        0       0.23909571       0.14865266      -0.36530430      -1.34447350      -0.04141499      -0.59689741      -1.59059277      -0.06852366      -0.56809185
H       -1.19892235       1.89920511       1.33526473        0       0.16271711       0.66491669      -0.05984086      -0.08359851      -1.66606027       0.19505954      -0.03260713      -2.01305869       0.23111108
H        0.64552135       0.74842539      -2.90327225        0      -0.63824451      -0.30039677       0.21502715      -1.02660344       0.28116210       0.00193453      16.78473195     -10.38530190       6.06276641
H       -1.14592777       0.15217306      -1.73952073        0      -0.07554923      -0.25645523       0.17576150       0.36763122       0.15994234      -0.17392274      -0.11479682      -0.43241806      -6.03096473
H        0.28300432       1.07021957      -3.14342007        0       0.19208516       0.22863992       0.15671035      -0.03685750      -2.43689169       2.75236290     -13.57407776      14.30119524      -8.37355827
12
Properties=species:S:1:pos:R:3:molID:I:1:momenta:R:3:force_mace:R:3:forces_xtb:R:3 Nmols=1 Comp=DMC(1) energy_mace=-588.0263271946156 energy_xtb=-574.9440134357717 pbc="F F F"
C        0.38841792      -0.40994626       0.02918934        0      -1.43124277      -1.08399051      -0.47067094      -1.14950433       0.28076200       3.13081286      -0.75981533       2.18129194       1.34407881
O        1.27745200      -1.19796321       0.11066590        0      -0.07668152      -0.72687659       1.39533617      -0.80872300       0.97669969      -0.90609221      -0.41261939       0.02548944      -0.62729068
O       -0.41706553      -0.18978408       1.27654962        0       3.36762319       1.48020524      -0.89070484       1.83086846      -2.09282806      -2.44275799       1.82776593      -2.30908140      -2.23911036
O       -0.11717822       0.39951654      -0.96643915        0       0.19375327      -0.74821099       1.24074380      -0.71473436       0.33436860      -1.07435677       3.77648580       1.09686042      11.79708481
C       -1.01963949       0.88096617       1.88265865        0       0.05085052      -0.88829423      -0.45794414       1.07921128      -0.03196512       0.80601193       1.13575495      -0.04020711       0.50723139
C       -0.12138985       0.35952075      -2.30976497        0      -1.67983471       0.38554218      -0.84607475      -1.14065867      -0.43419634       3.28119490      -9.73397185      -6.85237899       1.48870920
H       -2.07053543       0.72889045       1.96871525        0       0.12006357       0.56529276      -0.07434209       0.08538886      -0.50615683       0.68323890      -0.87723079      -1.55531467       2.09113828
H       -0.32897110       1.32749145       2.63422496        0      -0.17968168       0.29909634       0.62556003      -0.56907678      -0.82120508       0.07641900      -1.00286113      -0.87485556       0.49435310
H       -1.22841639       1.67751440       1.30896036        0      -0.23900608       0.00338148      -0.60189832      -0.52776161       2.37817865      -2.09456310       0.58648652       3.67930008      -3.50059263
H        0.46597725       0.69413359      -2.96729656        0      -0.67856947       0.25652396       0.25062598       3.23334595      -0.14343860      -3.35419435      11.58270242     -26.03188237      -8.15587517
H       -1.20682310       0.07952596      -1.62816410        0      -0.01669012       0.17231690       0.12724718       0.45901908       0.42605584      -0.09546251      -0.40405392       0.68976714      -5.86784331
H        0.37136078       1.17847585      -2.92541132        0       0.56941579       0.28501346      -0.29787807      -1.77737487      -0.36627475       1.98974935      -5.71864321      29.99101109       2.66811654
12
Properties=species:S:1:pos:R:3:molID:I:1:momenta:R:3:force_mace:R:3:forces_xtb:R:3 Nmols=1 Comp=DMC(1) energy_mace=-587.8067922074847 energy_xtb=-575.91073261127 pbc="F F F"
C        0.29974244      -0.47544702       0.12078524        0       0.35138684      -1.31703164       2.12865579       2.81703258       0.32489914      -0.89241571       3.02102884       0.98795699      -3.78905546
O        1.25394647      -1.20929147       0.15055727        0      -0.58323226       0.22706685      -0.89778768      -0.85908432      -0.07953672      -1.48577477      -0.17351570      -0.80111053      -0.92151112
O       -0.21847035      -0.15649420       1.21508850        0       2.69184174       0.33285917      -0.18329906      -1.73190996      -0.76723097       3.52240851      -1.95734250      -0.72504138       4.53542179
O       -0.12334545       0.36256004      -0.95090053        0      -0.82256352       0.16643563      -0.90158731      -1.80414930       0.19773773      -1.11665102       4.65592125      -0.64014811      12.24351742
C       -0.96830795       0.92295094       1.76189072        0       0.01090134       1.16472024      -2.43190919      -2.99470220      -1.30538354      -0.41831938      -3.23920605      -1.28177613      -0.40219226
C       -0.24352500       0.40602126      -2.29619212        0      -2.23402546      -1.07825382       2.20670557      -1.73768693      -3.26269578       5.34103355     -11.19771698      -8.94694232       3.37209099
H       -2.08489598       0.78762787       2.24461820        0       0.32136390      -0.34611677       0.21284027       1.50802428      -0.46077348      -1.52762412       1.15362960      -1.20487369      -1.99133420
H       -0.66100135       1.10496200       2.73356638        0       0.01985737      -0.20764712       0.26484152       1.79014338       0.66040978       0.79678858       2.31021120       1.41018452       0.94705407
H       -1.13131239       1.49664280       0.90025654        0       0.48802357      -0.07068627      -0.18840971      -0.25617476       1.91489440      -0.32657094       0.08987204       2.13894290      -0.16762569
H        0.07450425       0.82292665      -3.09203445        0      -0.42353006       0.24913131       0.09006454       2.20414679       2.55286275      -0.80434380      -3.84253049      -5.80571092     -16.81785030
H       -1.31658504       0.35416302      -1.52798669        0      -0.21366168       0.27363142      -0.05863962       1.09822267       0.01879941       0.03095400      -1.21402455       1.26510029      -6.27593531
H        0.34914700       1.10884210      -2.64805391        0       0.39363822       0.60589101      -0.24147511      -0.03386222       0.20601730      -3.11948492      10.39367333      13.60341838       9.26742007
12
Properties=species:S:1:pos:R:3:molID:I:1:momenta:R:3:force_mace:R:3:forces_xtb:R:3 Nmols=1 Comp=DMC(1) energy_mace=-587.8968133752984 energy_xtb=-571.9988530717 pbc="F F F"
C        0.33763265      -0.50325209       0.17204927        0      -0.13234611       1.02027040      -1.02475329      -0.08884019       2.17637793      -1.94540178       0.55952299       2.34289814      -3.89547503
O        1.23525333      -1.23923160       0.08662373        0       0.78742357      -1.33656288      -1.82283560       1.04958016      -1.62200252      -1.15799948       2.66537156      -3.10140384      -0.74277168
O       -0.11515094      -0.14086368       1.30056437        0       0.52141373       0.61056194       2.22492657      -0.74093828      -0.29846707       0.86707733      -0.69564871       0.35574758       1.03131505
O       -0.18649623       0.35701067      -0.95835734        0      -0.89999401      -0.74181832       2.65578509       0.66619714      -1.10921453       6.15857237       7.77791431      -0.01539140      24.67405086
C       -0.95477352       0.96533627       1.59371612        0       1.33750718       0.48210784      -2.31190859       0.73925235      -0.12532867       0.49607000       0.26271621      -0.06448335       0.61814103
C       -0.36345410       0.36136154      -2.16089041        0      -1.58772046       0.18820693       0.49091029      -1.73008585       0.39083714      -1.29466783     -10.00035988     -10.76953732      -9.28489992
H       -1.93589452       0.33446850       1.83360302        0      -0.35842994      -0.20611772      -0.62504365       1.30309794       2.45203553      -0.38965457       1.40385201       2.65013029      -0.28436182
H       -0.30097337       1.37953263       2.38065132        0       0.51356133       0.65501595      -0.55061783      -1.38150802      -0.08862937       0.86616540      -1.31140042      -0.30789838       1.28377851
H       -0.82449340       1.90466089       0.96325947        0       0.17833184       0.25421269       0.61751587      -1.17824880      -1.60979556      -0.11882274      -1.28850942      -1.71167195      -0.51810272
H       -0.18230279       1.06374115      -2.87256300        0      -0.32806426       0.04007326      -0.15458623      -3.00762288       0.34869617      -3.45008584     -27.93013876       6.18161496     -21.78763102
H       -1.21032911       0.55455377      -1.52724751        0       0.16836569      -0.15897099       0.05704888      -0.53637570      -1.17662472      -0.03544938      -5.78449228       1.55892508      -6.23600417
H        0.20482580       1.03751770      -2.62744402        0      -0.20004855      -0.80697909       0.44355849       4.90549213       0.66211567       0.00419652      34.34117239       2.88107017      15.14196091
12
Properties=species:S:1:pos:R:3:molID:I:1:momenta:R:3:force_mace:R:3:forces_xtb:R:3 Nmols=1 Comp=DMC(1) energy_mace=-587.6330511948275 energy_xtb=-564.7599693751876 pbc="F F F"
C        0.40202261      -0.47224109       0.07996079        0       1.62280683       0.22908573      -0.54246439       0.36007484      -0.25687289       3.20191862       0.04001300       0.31867409       1.80453618
O        1.25278180      -1.30257527      -0.01890525        0      -0.84987675      -0.46453178      -1.63520244      -0.87444612       0.79235989      -0.68528586       0.27380546      -0.30693216      -0.81665282
O       -0.06796031      -0.15055658       1.41267525        0       1.40684450      -0.35756025       1.38326134      -0.64371475       2.34895113      -1.74694882       0.37927950       1.41844634      -1.65203779
O       -0.24286902       0.32653540      -0.76247010        0      -0.92785124       0.13512751       2.73506751      -1.26296327       0.50409565      -3.30725112       5.84139170       1.91157352       7.87912077
C       -0.87536035       1.00396258       1.44283516        0       0.38723833       0.27585199      -1.89143821      -0.93357809       3.91778241       0.92840290      -3.79625902      -3.91654740       0.10268832
C       -0.51694328       0.36622888      -2.11448790        0      -1.06458863      -0.39618778       0.68225031       2.38823556       0.32899780      -0.44392421       1.22061734      -1.43891386      -7.44687059
H       -1.97597719       0.91693060       1.30896249        0      -0.63718358       0.53779672      -0.47662348       0.01968881      -2.14973264      -0.08301870       1.11104821      -0.42795425       0.13234854
H       -0.67660980       2.03690717       1.79463587        0      -0.36159384       0.46106775       0.23051461       2.39499083      -4.49584598      10.03928062       7.35150597      -9.54103462      53.53039518
H       -0.72582609       2.12108582       1.40333835        0       0.31368498       0.29967589      -0.59084655      -0.18657922      -0.08320871     -10.27134386      -5.14967819      12.67767307     -52.87369548
H       -0.16772997       1.00414478      -2.88950383        0       0.10834386       0.17710656      -0.18908600       1.45401014      -1.34807275       0.94477366     -14.17878449       9.09530712       0.45208843
H       -1.06759814       0.13712213      -1.36091798        0       0.25130806      -0.50155587       0.11281217       0.67905905       0.53602828      -0.48401744      -8.32644691      -2.36028164       0.15221260
H        0.36066335       0.78561650      -2.94618846        0      -0.24913251      -0.39587646       0.18175513      -3.39477778      -0.09448219       1.90741423      15.23350743      -7.43001022      -1.26413335
12
Properties=species:S:1:pos:R:3:molID:I:1:momenta:R:3:force_mace:R:3:forces_xtb:R:3 Nmols=1 Comp=DMC(1) energy_mace=-587.8698491926459 energy_xtb=-572.9470734531295 pbc="F F F"
C        0.47446791      -0.42662017       0.19232909        0       0.42487651       0.32507038       2.17355966      -0.55833962      -1.74791211       0.68036110      -1.69579547       0.16160556      -0.75218959
O        1.20074199      -1.31424399      -0.14398636        0      -0.82566343       0.06640515      -2.03254690      -0.38082008       1.34141620       0.85944854       0.53312910       0.01608878       0.34270256
O        0.00126886      -0.11096647       1.43742664        0       1.14976666       1.69807597      -0.37876788       0.90296109      -0.56791019      -1.79815369       0.46457149       0.49634632      -1.20782974
O       -0.32855004       0.32927226      -0.71799795        0      -1.92709802       0.29133851      -1.14736918       0.08664863      -0.54418456      -1.60078707       5.93106307       4.11744417      10.84840353
C       -0.87512618       1.11279037       1.32144276        0       0.19650954       0.18724298      -0.85422710       3.90186237      -2.35181812       3.82432705       3.06614338      -2.69833501       3.42863767
C       -0.57306916       0.28980601      -2.02366320        0      -0.40836963      -1.86944209       2.22443964       2.15826530       0.50573782      -1.96766985      -1.88323452       0.10243549      -8.06647948
H       -1.76010004       0.71745263       1.12804906        0      -0.08887538      -0.54438542      -0.14928579      -4.15008022      -0.42321786      -0.52469325      -3.66910478      -0.14951563      -0.57623942
H       -0.45562327       1.76510373       2.01974113        0       0.75309002       0.20370553       0.28251384      -0.62813618       0.50603715      -1.27755484      -1.73122122       0.04091401       5.75180394
H       -0.24342054       1.75256899       0.94054345        0       0.65722080       0.12154504       0.03241270       0.72918455       3.89496176       0.28566379       2.28224565       3.02227896      -6.92485571
H       -0.17317355       0.93372822      -2.71736476        0       0.31558221      -0.17191825      -0.13335342      -0.93587890       0.86561926       0.42894101     -17.17855088      21.47888866       6.24962264
H       -0.91664686      -0.27517504      -1.34907452        0      -0.03550825      -0.52553307      -0.09906093      -0.54615646       0.13466146      -0.41951466      -5.90967806      -7.50962105      -0.44946397
H        0.16490122       0.60055687      -2.87707745        0      -0.21153103       0.21789528       0.08168536      -0.57951048      -1.61339079       1.50963185      19.79043224     -19.07853027      -8.64411243
12
Properties=species:S:1:pos:R:3:molID:I:1:momenta:R:3:force_mace:R:3:forces_xtb:R:3 Nmols=1 Comp=DMC(1) energy_mace=-588.5109325940489 energy_xtb=-570.4191665548693 pbc="F F F"
C        0.48460416      -0.45612216       0.28048474        0      -0.03309650      -0.34635309      -1.07940904      -3.35986694       1.88864293      -4.40104569      -3.22681127       2.65981738      -4.02047436
O        1.12792570      -1.25515324      -0.24326164        0      -0.84411486       0.97778842      -0.92071058       2.08058932      -1.63943332       0.24951772       3.33511979      -3.55056699      -0.52930889
O        0.08022844      -0.05002564       1.39270692        0       1.05570945       0.70141478       0.05665730       0.36567049       1.05711300       2.52639140       0.95711702       0.35304133       3.13808071
O       -0.43357570       0.30159087      -0.72510572        0      -2.06688752      -1.48218885       1.60355403       0.49075969      -1.29820086       2.53037762       4.60843271       6.19350290      13.09801646
C       -0.73402819       1.10679354       1.34626643        0       2.45077322      -0.18802431       0.64938795       2.80553012       2.69584606       2.70006758      -0.87759260      -1.93336928       1.20168927
C       -0.57466545       0.16610200      -1.96682145        0      -0.07536660      -1.38874869      -0.02717042       3.50113325       2.70838235      -4.71389563      -1.06104931      -0.14058669      -8.20869686
H       -1.72552796       0.91671489       1.21999558        0       0.37465005       0.89000326       0.16398758      -3.12406484      -0.74924897      -0.53453612      -2.11342177      -0.09718673      -0.19910016
H       -0.43681595       1.99977045       1.89132203        0      -0.51718547       0.37414180       0.99971624       0.23902393      -1.21114958      -3.15107271      -1.91278717      -1.63696173      17.92100562
H       -0.35522441       2.07338824       1.30609912        0      -0.58290479       0.37608796      -0.50378371      -0.16676099      -0.89054942       2.44051251       3.59500215       4.41146519     -17.37359638
H       -0.13141807       0.94870570      -2.62333571        0       0.24380784      -0.03025305      -0.21555902      -0.70901061      -1.39526805       0.36774415     -13.13950970      19.41777923       5.78785245
H       -1.05892507      -0.51482384      -1.52034257        0      -0.27373454      -0.08712427      -0.33345333      -0.68025323      -0.47682041       0.62385210      -5.17076018      -7.28207045      -3.46880108
H        0.16345775       0.54826156      -2.78212353        0       0.26834971       0.20325605      -0.39321700      -1.44275020      -0.68931374       1.36208704      15.00626032     -18.39486417      -7.34666678
12
Properties=species:S:1:pos:R:3:molID:I:1:momenta:R:3:force_mace:R:3:forces_xtb:R:3 Nmols=1 Comp=DMC(1) energy_mace=-589.0232585497212 energy_xtb=-576.969103873634 pbc="F F F"
C        0.33787236      -0.41430168       0.09587856        0      -2.61286595       0.66488594      -2.75178812       2.98083203      -2.63447641       1.31627532       1.78837578      -1.33238721       0.73143388
O        1.17431765      -1.26186581      -0.26552061        0       0.67100849      -0.28919655      -0.12522944      -2.99348016       3.12391823       1.02972426      -2.45224091       2.56733686       0.89766448
O        0.19402283       0.01940655       1.38838944        0       2.74613606       1.45680976      -0.36296903       0.09785671       1.49057845      -0.91976631       0.71115624       0.93180603      -0.46092936
O       -0.59454360       0.20575451      -0.63535788        0      -2.81781654      -1.25413239       0.45698879      -0.12463486      -0.02851441      -4.25297183       5.58188495       2.16213897       6.73196544
C       -0.62202727       1.21449609       1.48096047        0      -0.46839555       0.54593130       1.74803768      -2.56776780      -6.34114644      -3.31526874      -4.02374154      -6.51254903      -3.38018865
C       -0.51129527       0.08469445      -1.99670991        0       0.15019073      -1.24020570       0.99043019       0.47326621       0.79500632       0.86744511      -1.38831511      -1.41471988      -1.96342533
H       -1.72174658       0.83829636       1.19758746        0       0.57676504      -0.72752735       0.03209333       1.31914709       0.96083768       0.80513844       2.11377286       1.50329991       0.90624381
H       -0.50352510       1.89127655       2.14131061        0       0.63533438       0.58145270       0.40380763       1.18033142       3.58762558       1.87358743      -0.20667157       1.10626705      10.60368441
H       -0.37258903       2.17133215       1.22333645        0       0.73682495       0.23998572       0.43441378       0.43509303       0.07311869       1.38473222       1.69863145       2.60323255      -7.44102311
H       -0.12169641       0.78563544      -2.70884153        0       0.18690929      -0.37169790      -0.14422693       0.31061436      -2.87700945       0.78647888      -5.44455342      15.62634182       1.54848486
H       -1.32277654      -0.27825049      -1.60564468        0      -0.14240100       0.38417719      -0.08642190      -0.52947320      -0.23478802      -0.07396957      -6.69135326      -3.05897579      -4.38587177
H        0.09386992       0.21259146      -2.80155999        0       0.33831010       0.00951729      -0.59513599      -0.58178484       2.08484979       0.49859478       8.31305453     -14.18179127      -3.78803868
12
Properties=species:S:1:pos:R:3:molID:I:1:momenta:R:3:force_mace:R:3:forces_xtb:R:3 Nmols=1 Comp=DMC(1) energy_mace=-588.9395336126781 energy_xtb=-571.4298418486475 pbc="F F F"
C        0.33546728      -0.45610812       0.03585576        0       1.26712207      -0.44471494       1.41130021      -3.34060524       5.09309822       4.60245344      -5.76345323       6.86135626       4.64121901
O        1.14003163      -1.19210303      -0.25999572        0      -0.99307124       1.49283991      -0.32878721       2.95111775      -3.50157228      -2.26730256       3.95458293      -4.07792970      -2.71484639
O        0.36289539       0.12050022       1.31733617        0       2.20701607       1.87353432      -1.61227693      -1.91080935       0.67061906      -0.95173058      -0.66107506      -0.04039146       0.03471387
O       -0.76647383       0.16184055      -0.73919181        0      -2.94218212      -0.52447576      -2.42368435       0.86011580      -0.65071583       2.13369975       7.34531463       1.90197895      19.24655102
C       -0.57853255       1.20375121       1.63307461        0       1.65150395      -0.57493519       2.22820500      -0.32619523      -2.10870268       0.19613035      -3.48586638      -4.44059781      -1.04025428
C       -0.52372050      -0.01182270      -1.92741380        0      -0.71432009      -1.20832237      -0.05098864      -4.06616402       1.19062697       0.15162608      -7.11267020      -4.87760093      -6.15852713
H       -1.72221491       0.90635840       1.61219986        0      -0.22883215       0.47575609       0.55153079       1.98380323       0.42282330      -0.12936685       2.74707120       1.03044026      -0.22125813
H       -0.31100429       1.97262053       2.31371233        0      -0.27577449      -0.82333501       0.00426976      -0.30286417      -0.94623177       0.48723057      -1.32124680      -1.91930683       9.74797413
H       -0.08856674       2.08486673       1.58283379        0       0.32492513       0.27628815      -0.03692409       0.27405785       1.16835874      -1.15103955       2.65166172       4.46640231      -9.50971404
H       -0.11317278       0.48213848      -2.82370630        0      -0.08736903      -0.14232509       0.00793739      -0.18023430      -1.04460502       1.75488422      -3.46975856      26.43286962      -5.62134696
H       -1.52688246       0.00556308      -1.77510853        0      -0.02679744       0.13622785      -0.29812411       0.45753897      -0.35899148       0.45910204      -5.30637588      -0.88483922      -6.94411797
H       -0.01291465      -0.02064202      -2.71236646        0      -0.18222064      -0.53653796       0.54754218       3.60023872       0.06529277      -5.28568690      10.42181563     -24.45238145      -1.46039314
12
Properties=species:S:1:pos:R:3:molID:I:1:momenta:R:3:force_mace:R:3:forces_xtb:R:3 Nmols=1 Comp=DMC(1) energy_mace=-588.8164005081233 energy_xtb=-573.8507154701425 pbc="F F F"
C        0.30703604      -0.35360471       0.16728176        0      -0.56177756       0.67539963      -0.58398296       1.04150560      -3.19574710      -7.32527898      -0.07064492      -3.41702484      -6.18202431
O        1.15488428      -1.16375488      -0.33046858        0      -1.20417058       1.62204910      -0.73693217      -4.23550383       3.46702499       2.21692041      -2.67006094       2.74083298       1.38156741
O        0.43505848       0.24442431       1.23475115        0       0.83410639       2.40006609      -0.27921120      -0.17024652       0.84125861       2.76083154       1.05883340       0.97040343       3.51463082
O       -0.87873276       0.06791936      -0.74973276        0      -0.78979164      -1.98253613       1.74611278       3.44335940      -1.19570197       1.29069550       6.96151736       1.80534386      14.57805664
C       -0.48238170       1.16471994       1.74382730        0       1.23427157      -0.25000294       1.64418880       0.52400283       1.77506772       0.74990503      -1.96776114      -0.39469906      -0.03269011
C       -0.61690222      -0.10618232      -1.98781309        0      -0.77087724      -1.54852672      -1.94528780       1.31946776       0.18196078      -1.69528216      -0.95618659      -3.46432640      -7.63716845
H       -1.55410122       1.08633779       1.73948499        0      -0.26224028      -0.60299378      -0.41924592      -0.46112450      -1.13986699      -0.54627252       0.13326558      -0.56232542      -0.38210952
H       -0.11489665       1.77828206       2.52038603        0       0.65472710      -0.23341540      -0.42491257       0.15290292      -1.02509666       0.71600283       0.83543092      -3.98397198       8.61657048
H       -0.13383893       2.14564139       1.81477211        0       0.22680897       0.58557210       0.39432687       0.16268435       0.47387761      -1.25129060       0.37014572       5.52051268      -8.10988002
H        0.02480870       0.17431640      -2.86380890        0       0.45745873      -0.39229734       0.02000722      -0.38434091      -1.36353431       1.89585460      -7.98860031      19.97777692      -3.93188879
H       -1.59562610      -0.04294995      -1.82731207        0       0.25032315      -0.26660200       0.01611302       0.76664419      -0.15552429      -0.14345554      -5.34210343      -0.54658055      -5.94093982
H        0.27595817      -0.29477433      -2.77323859        0      -0.06883861      -0.00671260       0.56882394      -2.15935128       1.33628160       1.33136990       9.63616434     -18.64594162       4.12587566
12
Properties=species:S:1:pos:R:3:molID:I:1:momenta:R:3:force_mace:R:3:forces_xtb:R:3 Nmols=1 Comp=DMC(1) energy_mace=-588.1221261079354 energy_xtb=-573.8246254360548 pbc="F F F"
C        0.26233748      -0.34972593       0.03487572        0      -1.69567795       1.34577336      -0.67563406      -1.94028841       3.71352843       3.50875648      -3.55830291       4.22389320       3.64889236
O        1.05575038      -1.06414165      -0.37080328        0      -0.70557596       0.12597094      -1.03755414       4.09747493      -3.89758997      -1.39785236       4.75130998      -3.65165244      -2.03567269
O        0.50626863       0.33035771       1.23267735        0       2.03139763       0.22080885      -0.65110827       0.49183052      -0.54953185      -0.69812257       0.97354753      -1.22999688      -1.88191022
O       -0.86139821      -0.07207828      -0.66610474        0       0.90972895      -1.79169570       0.44248855      -1.07201028       0.53035776      -2.57469941       3.54994942       1.67060985       6.39058442
C       -0.41735957       1.23337067       1.85151112        0       0.79554225       0.75783995       0.35790605       1.42300820      -6.53960104      -0.56439558      -0.59690590      -7.51520087      -0.29894146
C       -0.69023746      -0.21959884      -2.07016320        0      -1.23480585      -1.45453808       0.44767798       3.43840113       0.80816027       1.95270660       0.94808097      -2.56706865      -1.35112337
H       -1.31085113       0.80290076       1.58520192        0       0.02788222       0.12141817       0.34957950      -2.91863631       0.18048993       0.53068499      -2.32737283      -0.01894588       1.07405129
H        0.12711966       1.82751358       2.56699760        0      -0.31721704       0.16417782       0.43970506      -0.76234880      -1.01403803       0.09138219       1.84725806      -3.89598774       7.10321272
H       -0.21901937       2.13430078       1.85908981        0      -0.26992513       0.16672037      -0.13173675       1.01812143       7.13374724      -0.61661243      -0.71354704      11.41507262      -7.70038940
H        0.25426775       0.12836462      -2.57969101        0       0.21424930       0.45598748       0.11225431      -2.19353859       0.17874142       0.33817091     -10.13112521      20.47588464     -12.67365639
H       -1.60629118      -0.12152297      -1.73360410        0       0.12840965      -0.05231284      -0.04008955       0.48363543      -0.00871663      -0.34821356      -5.82707670       0.65020634      -4.30804583
H        0.47873298      -0.25020202      -2.32739102        0       0.11599193      -0.06015030       0.38651132      -2.06564925      -0.53554753      -0.22180527      11.08418463     -19.55681419      12.03299858
12
Properties=species:S:1:pos:R:3:molID:I:1:momenta:R:3:force_mace:R:3:forces_xtb:R:3 Nmols=1 Comp=DMC(1) energy_mace=-588.4093778835991 energy_xtb=-574.3351824713226 pbc="F F F"
C        0.25511224      -0.24084462       0.06167983        0       2.14130081       0.28603655       0.34421502       3.77367163      -3.57962697      -0.56406016       2.41863225      -3.27681629      -0.46778933
O        1.03914454      -1.08906627      -0.41738255        0       0.16555223      -0.34839518       0.05899707      -0.63200047       1.85980746       1.73762807       0.11333123       1.90896970       1.29152776
O        0.59263778       0.36930840       1.20291002        0       0.11309303       1.07785068      -0.15735784      -1.63069426       1.64038534       0.74255133      -0.59284969      -0.03819324      -0.10946849
O       -0.87504474      -0.14214954      -0.66805320        0      -2.11472023      -0.21709660       0.03755020      -1.90497764       1.09829423      -1.09162763       3.15953586       2.97641790      10.25215786
C       -0.36093172       1.23683117       1.82495445        0      -0.54757143      -0.21804073      -0.85518716      -2.71607110      -3.63023593       0.43558465      -4.37505868      -8.03520683      -0.87358544
C       -0.69795216      -0.31438999      -1.96873765        0      -0.74159298      -0.68655710       1.83790859       0.78777931       2.46398615      -0.97596765      -1.77173676      -2.95925369      -4.67595312
H       -1.43382912       0.88962475       1.96478808        0       0.55875182      -0.20047993       0.08583777       1.01144828      -1.15682173      -0.74551622       1.56663215       0.00085254      -0.70012221
H       -0.32076418       2.08438445       2.49385209        0       0.23931505       0.42053729      -0.44031506       1.59520201      -0.52636432      -3.26774156       0.13884862      -2.63794985      16.50222905
H       -0.24327024       2.17872115       1.89545719        0       0.54927904      -0.47439817       0.29794637       1.11429980       3.79898040       2.33114628       2.23034916      10.31396653     -15.82220224
H       -0.03605111       0.41665092      -2.50082113        0      -0.03040582       0.08742997      -0.38484747      -0.37695684      -2.26642340      -0.11864459      -2.37459632      11.84621872       2.49403395
H       -1.68971121      -0.12015590      -1.74810220        0      -0.04736285       0.00499622      -0.16466120       0.82732274      -0.51104190      -0.26665647      -3.71464712       0.37940913      -5.53913235
H        0.15259820      -0.19250733      -2.69547394        0      -0.28563868       0.26811699      -0.66008629      -1.84902346       0.80906067       1.78330393       3.20155930     -10.47841463      -2.35169543
12
Properties=species:S:1:pos:R:3:molID:I:1:momenta:R:3:force_mace:R:3:forces_xtb:R:3 Nmols=1 Comp=DMC(1) energy_mace=-588.6825155286015 energy_xtb=-568.4344028918771 pbc="F F F"
C        0.41033799      -0.28357436       0.09955995        0      -0.09715505      -0.15564554       0.67637115      -5.93664461       0.84490560      -1.55515822      -4.35475293       1.54904890       1.09610364
O        1.05894911      -1.10873811      -0.40442871        0       0.89808838      -0.79898780      -0.38630293       1.93063851      -0.97827175       0.03586262       2.90090031      -1.64591186      -1.13979904
O        0.60549968       0.42600374       1.18539401        0       0.79855809       0.28104822      -0.58697464       0.75497967      -1.60020345      -1.05940136       2.90431611      -1.76603528      -0.13936328
O       -0.99016516      -0.13136234      -0.67400193        0       0.16651922       0.30340136       0.43215969       4.96829622       0.27359604       2.50032264       5.61780665       4.07786229      17.40449601
C       -0.35341638       1.23523874       1.76188023        0       0.03944213       0.08738706      -1.31686435      -0.89622261      -0.86846085       0.09311633      -7.53988704      -8.07918894      -1.19339849
C       -0.72622107      -0.29321918      -1.88742003        0      -1.11642510       0.13123305       1.65553116      -1.64497471       1.24300468      -1.51307197      -3.71640160      -6.29800718      -8.68172082
H       -1.35904919       0.61182793       2.01461864        0       0.25697558       0.35367814       0.12578134       1.77516309       1.76153947      -0.25230377       2.43395297       2.42591417      -0.52000497
H       -0.14866940       2.15752654       2.21110813        0      -0.45053538       0.37719884       0.29831310       0.60393314      -0.91068896      -1.53700592     -10.13731832       4.29378293      17.94631940
H        0.17963794       2.09405023       1.78030302        0      -0.09600025      -0.33326852      -0.38093148      -2.08005696       1.34793156       1.99483137      12.87544281       2.82561128     -16.07070943
H       -0.25156003       0.30278201      -2.63903347        0      -0.02312657      -0.20478808      -0.82402672      -1.13832312      -2.67465683      -0.16857993       6.05366775      15.77213164       4.14331915
H       -1.75189170      -0.27566102      -1.56202753        0      -0.14500596      -0.30753195       0.61279613       0.70885728      -0.36334075      -0.32188545      -3.99967186      -0.40414506      -5.81259727
H       -0.46689135      -0.22110743      -2.88517143        0      -0.23133510       0.26627520      -0.30585244       0.95435409       1.92464524       1.78327367      -3.03805485     -12.75106290      -7.03264489
12
Properties=species:S:1:pos:R:3:molID:I:1:momenta:R:3:force_mace:R:3:forces_xtb:R:3 Nmols=1 Comp=DMC(1) energy_mace=-589.2096510342601 energy_xtb=-561.3896139627508 pbc="F F F"
C        0.28660156      -0.37123614       0.07411686        0      -1.46630792      -2.22521754      -1.37950319       3.47126123      -0.41639271      -0.28861749       2.10741105      -0.05948474       0.05425669
O        1.09564983      -1.17509186      -0.37863789        0      -0.20907922      -0.30736925       1.64429871      -1.61449494       1.21829684       1.20488004      -0.31534953       0.76656659       0.54423387
O        0.65254738       0.42617714       1.13684744        0       0.38193870      -0.20672540      -0.73268683      -1.83214081       0.85238033       0.13295596       0.01961506      -0.63865089       0.01374131
O       -0.88432267      -0.11560967      -0.59613803        0       1.96184895       0.09051270       2.13497217      -1.21383266       0.26592286      -0.43896114       5.51561330       5.64228347      14.92447975
C       -0.30616917       1.33224569       1.67996954        0       0.68170586       2.17119084      -0.83524647      -2.14992024      -3.00804482       0.32153328      -5.61941727     -10.52469803      -1.98212482
C       -0.86482317      -0.26112828      -1.88233011        0      -2.22747415       0.41096368       0.33360725       1.68880240       0.45886375      -2.47927739      -0.34365884      -2.99252060     -10.25553149
H       -1.32597767       0.82951919       2.11875389        0       0.27206661      -0.10643655      -0.25900377       1.96003232       0.36710305      -1.07445893       2.63399909       1.28045230      -1.15243195
H       -0.22363631       2.23035585       2.11903005        0       0.35380231       0.53228840      -0.01761298      -1.00963522      -1.65854547       8.41649954      -8.96708266      -9.74931014      53.55489651
H       -0.13929854       2.33631288       1.73762867        0      -0.44674669      -0.30644291      -0.51225096       2.31727503       2.28055680      -8.82090227      11.20089948      18.46960098     -51.08891560
H       -0.27886187       0.15630173      -2.61458843        0       0.65687927       0.14635461      -0.41549722      -0.82703647      -0.44216808      -0.66396792      17.72466438      12.33227487       9.16292414
H       -1.52176884      -0.50866548      -1.27433868        0      -0.14544522      -0.34299063       0.68402208      -1.24007645      -0.24099002       1.30496566     -10.42375438      -4.82257803      -0.85996642
H       -0.64496997      -0.09652860      -2.91519231        0       0.18681152       0.14387202      -0.64509878       0.44976579       0.32301748       2.38535067     -13.53293968      -9.70393578     -12.91556198
12
Properties=species:S:1:pos:R:3:molID:I:1:momenta:R:3:force_mace:R:3:forces_xtb:R:3 Nmols=1 Comp=DMC(1) energy_mace=-588.5833876991251 energy_xtb=-572.3871391330395 pbc="F F F"
C        0.32219411      -0.44260058       0.04582581        0       1.35645007       1.50884216       1.58356627       1.17351735       3.49470531       2.67695467      -0.95612461       3.59370984       2.31436148
O        1.10616241      -1.23012958      -0.29013287        0       1.69011025      -1.95813909       0.96875544       1.48698163      -2.23081007      -0.82198449       2.75077866      -2.70061876      -1.32417484
O        0.63705443       0.45824929       1.08516296        0      -0.21583482       1.21437594      -0.82059858      -0.01235967      -0.29544600      -0.09439695       0.39246957      -0.60147154      -0.16394328
O       -0.82331465      -0.13150417      -0.51719953        0       0.07079638      -1.06289976      -0.03743524      -2.37776029       0.17031252      -0.81268065       5.03242522       5.16435398      10.70734259
C       -0.27493419       1.43361228       1.59925255        0      -0.30122384       0.55062860      -2.08556968      -2.33855851      -4.78231755      -1.63212285      -3.06539663      -5.11780197      -0.97258092
C       -1.03011576      -0.19859433      -1.86320229        0      -2.86832783       0.60193523       1.66994205       1.10419604       1.96993012      -1.45762893      -3.04583486       3.91537639      -8.89736829
H       -1.25732348       0.78468891       1.87867713        0      -0.26336067       0.11637256      -0.01286755       1.66486179       1.82852705      -0.02752942       2.10433475       2.38398130       0.20227548
H        0.16702710       2.27168946       1.90457129        0       0.42816509       0.28324524      -0.59526793      -0.27780664       1.37558505      -0.49610533       3.57192310       1.45080319       6.10290993
H       -0.43450043       2.25257954       0.99225092        0      -0.06384915      -0.82674684       0.00148373       0.82969133       0.53804844       1.32978381      -3.16232096       0.52758866      -5.59933535
H       -0.25078976      -0.01393515      -2.42585353        0       0.30325955      -0.08643059      -0.07075515       0.63115401       0.09647956      -3.75396507      18.72766521       5.77377676       7.31516034
H       -1.40431776      -0.55228951      -1.15974682        0      -0.32432446      -0.13333948       0.03403066      -3.82453058      -2.69914923       4.70646299     -11.32844568      -9.63418071       5.19410616
H       -0.66613585      -0.16047569      -2.78494244        0       0.18813943      -0.20784397      -0.63528401       1.94061355       0.53413483       0.38321223     -11.02147377      -4.75551714     -14.87875328
12
Properties=species:S:1:pos:R:3:molID:I:1:momenta:R:3:force_mace:R:3:forces_xtb:R:3 Nmols=1 Comp=DMC(1) energy_mace=-587.9265363766391 energy_xtb=-564.4748085029734 pbc="F F F"
C        0.49800933      -0.34783260       0.11733309        0       2.21435947      -0.84898809      -0.63072035      -1.04571381      -3.90454474      -2.97400000      -1.82620635      -3.49917599      -3.83446045
O        1.19876588      -1.31066299      -0.21975305        0       0.24781669       0.37621055       1.66438128      -2.17331164       3.83793626       1.31398314      -0.57127077       1.90763972       0.32717345
O        0.64010482       0.50174308       1.05675984        0       0.94828565      -0.53436653      -0.12351408       2.00872956      -1.09013471       0.60986701       2.57607570      -0.17932625       1.25816790
O       -0.86379210      -0.18378839      -0.54654562        0      -0.50049811      -0.33900906      -0.06110335       1.21635731      -0.16696454       4.85209055      10.64935291       2.58835516      16.42846998
C       -0.29083505       1.37553958       1.43945033        0       0.00495951       0.31518135      -2.06639627      -3.39161032       2.36402305      -0.08982397      -4.81455953      -2.63036845       3.88053066
C       -1.18401307      -0.15024390      -1.77717869        0      -1.35315287       0.70532697       0.94492657      -3.72887744       2.82064858       8.03244271      -9.63543862       7.26053586      -1.62228714
H       -1.22285736       1.10909647       2.09847530        0      -0.20521589       0.24847759       0.39692886       1.77766858      -0.15141877      -1.01061717       1.92154966       0.42119078      -1.89903556
H       -0.07164894       2.33523728       1.27066492        0      -0.72696392       0.18454741      -0.52188387      -1.22577756       2.54704460      -1.58803201      10.62942297       1.58668123       9.64177635
H       -0.47968658       2.52186891       0.85356232        0       0.12378363      -0.11556462       0.30745734       1.94874974      -3.34246356       2.70608173      -9.31294551       2.40098792     -10.24380064
H       -0.46716894      -0.12852316      -2.44158521        0      -0.11691571       0.18190034      -0.48577754       5.22785518       1.93308360      -2.61780471      33.42296669      15.67251408       5.54541423
H       -1.62022040      -0.53761773      -1.06038469        0      -0.08412130       0.14506274       0.44757490      -1.24591793      -0.97550805       2.28318719     -10.12857391      -6.17150257       2.22308500
H       -0.86245068      -0.34013464      -2.58529738        0      -0.55233715      -0.31877866       0.12812651       0.63184834      -3.87170171     -11.51737446     -22.91037325     -19.35753150     -21.70503377
12
Properties=species:S:1:pos:R:3:molID:I:1:momenta:R:3:force_mace:R:3:forces_xtb:R:3 Nmols=1 Comp=DMC(1) energy_mace=-588.3105394742745 energy_xtb=-574.6789523282217 pbc="F F F"
C        0.49945334      -0.41443231       0.07026888        0      -2.21860272       0.57275935      -0.11998966      -1.57740503       0.85925311       0.64408053      -1.24555122       1.06770525       0.52906384
O        1.23582853      -1.30392714      -0.14476759        0       1.11510021      -1.36921161       0.03295989       0.24003160      -0.67269355      -1.01436738       1.03420463      -1.54290934      -1.12434960
O        0.73420408       0.45335596       1.03851622        0       1.78692692      -0.33128119      -0.90538463      -2.10663611       1.92724759      -0.37543912      -2.13343153       1.80276456       0.05066666
O       -0.84192218      -0.21087632      -0.46701182        0       1.17297386      -0.63341547       1.31388095       0.37441756      -0.28890516      -1.73005345      12.94515712       0.22825538       9.73079960
C       -0.38189198       1.45692719       1.30282108        0      -0.56694527       1.16867670      -1.42162546       3.01235375       0.75626623      -0.36963323       2.46186544       0.79900391      -0.29411367
C       -1.25475076      -0.07005013      -1.76072601        0      -0.59395869       0.72617393       0.56187479      -2.28029414       1.17173622      14.22170754      -5.98513694       4.15607981       5.20393491
H       -0.83867330       1.09334406       2.21583511        0       0.31218702      -0.43287040       0.65325562      -0.39571011       0.41096029      -0.36157853      -0.36231398       0.62981600      -0.54808977
H        0.11323551       2.42700838       1.29561742        0       0.06220193      -0.13379257      -0.00095953      -1.10920281      -1.38580908      -0.07843458       2.26645977       0.32613554       3.04226097
H       -0.79115118       2.09677460       0.51717561        0      -0.21290175      -0.07442408      -0.67497567       0.68283969      -1.15692300       1.19348709      -2.42024349      -2.74750675      -1.53983244
H       -1.01375715       0.04713827      -2.63190442        0      -0.58495111       0.18502903       0.06526787       1.87310212      -0.92344780      -6.48206540       6.19872383      17.30131326     -10.05601006
H       -1.64417669      -0.29412555      -0.85806237        0       0.03057554       0.30547231      -0.43467179       0.04464123       0.18778881      -1.04866126     -11.57254548      -1.61908323      -1.25669808
H       -1.11934874      -0.57028358      -2.54731430        0      -0.30260593       0.01688400       0.93036762       1.24186224      -0.88547368      -4.59904223      -1.18718815     -20.40157439      -3.73763236
12
Properties=species:S:1:pos:R:3:molID:I:1:momenta:R:3:force_mace:R:3:forces_xtb:R:3 Nmols=1 Comp=DMC(1) energy_mace=-588.3748554622208 energy_xtb=-576.4367296191044 pbc="F F F"
C        0.44070007      -0.44443458       0.06418378        0       1.23969344      -1.71726862      -0.05030665       1.57007522      -0.38334951      -0.09547147       1.64790192      -0.22006749      -0.39244744
O        1.22944618      -1.30871027      -0.18274683        0      -1.65509000       1.30902960      -1.29385145      -0.70912411      -0.29235608      -0.73184901       0.05911788      -0.93046661      -0.72098941
O        0.77051747       0.46004475       0.94680356        0      -1.13851978       1.08498169      -1.35078033      -1.85338965       2.62484234       0.70674141      -1.47441724       2.51532144       1.49886683
O       -0.82531440      -0.27904711      -0.39469394        0      -1.20737075      -1.61123426       0.27538148      -1.06260537      -1.91573177      -1.95945038      12.18529847      -5.48558694       9.28286338
C       -0.31224993       1.47043447       1.21914301        0       2.94162911      -0.07224433      -1.50758986       3.61462946       1.55391511      -0.29392979       3.14931444       1.91840410      -0.47980465
C       -1.29883333       0.04437639      -1.60993123        0      -0.17259542       0.79237176       1.33112952       1.91655741      -1.25091118      -2.23792340      -1.46351280       3.33799601      -9.86357230
H       -0.65630529       1.22357941       2.15651898        0      -0.40990337       0.05148173       0.48795245      -1.41351893      -0.90811921       1.59388362      -1.53632930      -1.02767157       1.71637393
H        0.24264628       2.50455175       1.55512232        0       0.21628737      -0.16796532       0.19351866      -1.03139822      -1.82040081      -1.56727443      -0.97939924      -2.02345102      -1.70409326
H       -1.04572491       1.49769909       0.37784604        0      -0.32368085      -0.53681784       0.07351910       0.88637685       2.24434765       1.99351788       0.87864730       0.81477417       1.19044507
H       -1.40277529       0.06163895      -2.61846998        0      -0.13806890      -0.01791740       0.91808737       0.16245898       0.03409030       0.23327676      -1.84694339       9.26668815      -4.00838246
H       -1.61419956      -0.01077311      -0.73361762        0       0.48038834       0.09743936      -0.01571116      -1.98290376      -0.73056556       1.05716324     -13.67563350       2.54973217       2.94908398
H       -1.15580446      -0.58982214      -2.48414220        0       0.16723080       0.78814362       0.93865088      -0.09715788       0.84423873       1.30131556       3.05595545     -10.71567242       0.53165632
12
Properties=species:S:1:pos:R:3:molID:I:1:momenta:R:3:force_mace:R:3:forces_xtb:R:3 Nmols=1 Comp=DMC(1) energy_mace=-588.4369544789839 energy_xtb=-573.5347898958493 pbc="F F F"
C        0.45643643      -0.42447534       0.09541952        0      -0.75771904       1.51161808       0.12395989       0.60334005      -2.98107461      -2.40590094       1.01506607      -3.17335010      -2.51447874
O        1.21905527      -1.32516652      -0.25739932        0       0.05217748      -1.19727025      -0.69989618      -1.81218509       2.83008709       1.21559404      -0.65418454       1.60300024       1.00530194
O        0.66477180       0.54487998       0.90491131        0      -0.54320180       0.60793220      -0.58742452       3.80379176      -3.21765750      -0.95271309       4.57274957      -3.23345718      -0.16360842
O       -0.89901879      -0.45083070      -0.39224948        0      -1.48097032      -2.97102281      -0.08589422      -0.11732791      -1.08974930       1.46093653      11.74197288      -8.22374517      11.29415432
C       -0.12989853       1.48692821       1.19600786        0       0.97779394       1.17089332       0.84136654      -2.64351593       6.84139568       0.10023232      -3.02944441       7.70990138       0.37182444
C       -1.28029214       0.10177156      -1.45534882        0       0.05702911      -0.06379321       0.43014736       0.39290140      -0.60083028      -5.19052255      -3.27454297      11.01790205      -8.35430738
H       -0.67475636       1.28704143       2.06807489        0       0.49513741       0.06417760      -0.37897020      -0.35948121      -0.31409832       1.97970027      -0.09186419      -0.05820875       2.47297764
H        0.53270349       2.50331050       1.21842264        0       0.47954136       0.27226343      -0.40364326      -0.84407524      -1.66295270       0.30523102      -1.27402841      -1.94581445       0.66286001
H       -1.04256615       1.91187142       0.65326137        0       0.08120750       0.53766667      -0.11703777       1.02817799      -0.98164524      -0.55424870       1.07934616      -1.17498406      -1.23257393
H       -1.39347889      -0.14931328      -2.57455896        0       0.13391422      -0.32158166       0.67674099      -1.69956311       0.69667108       2.04247432     -26.86710528       1.36789779      -1.88202442
H       -1.78843711      -0.19842640      -0.67929627        0       0.30143751      -0.17894443      -0.42515594       0.36967099       0.08498975      -0.21893306     -11.30149258       0.72109537       0.18545604
H       -0.90605252      -0.21206093      -2.57641966        0       0.20365262       0.56806107       0.62580732       1.27826629       0.39486433       2.21814984      28.08352772      -4.61023712      -1.84558148
12
Properties=species:S:1:pos:R:3:molID:I:1:momenta:R:3:force_mace:R:3:forces_xtb:R:3 Nmols=1 Comp=DMC(1) energy_mace=-588.7148363732429 energy_xtb=-573.9966692031256 pbc="F F F"
C        0.43489598      -0.46326159       0.03521462        0      -0.57224367      -1.93982213      -0.81571734      -3.67425095       1.94179966       2.25904583      -2.77354029       2.00424936       3.17386450
O        1.17183794      -1.29645930      -0.26426180        0      -0.47665942       0.99980087      -0.20132110       2.64351231      -2.17140094      -1.23079764       3.03918080      -2.24029007      -1.45041682
O        0.71080726       0.53768420       0.87852145        0       0.66878548      -0.06833787      -0.18997627      -0.28542315       0.00885454      -0.70191713       0.11543249       0.09281538      -1.13208693
O       -0.97801186      -0.61151735      -0.32792063        0      -0.66767838      -1.68945884       1.30838656       2.07843629       1.90320332      -1.64568322      13.52588519      -5.76585936       9.93145336
C       -0.11429502       1.72999261       1.23165874        0      -0.29633950       2.26641737       0.84172925       2.01277101      -3.12466259       0.90975104       1.80407475      -3.19620904       1.21453629
C       -1.25161898       0.08499809      -1.45794076        0       0.24837066      -0.96007281      -0.25990856       0.56375583      -2.54565821      -1.49870103      -3.07376345       7.95189248      -4.38419327
H       -0.45662551       1.35443113       2.24346395        0       0.34602633       0.72585936      -0.38799238       0.02367102       1.20694459      -0.77980626       0.20988852       1.52157962      -0.89812497
H        0.68939231       2.42019247       1.08559676        0       0.53165551       0.63162217       0.13902852      -0.14121213       1.07542923       0.69317056      -0.06140435       1.07217853       0.95422956
H       -0.86149161       1.90511343       0.53716420        0      -0.21613915      -0.27522450      -0.20636883      -1.37055656       0.24963412      -0.90203892      -1.60880649       0.07759067      -1.13841388
H       -0.95356425      -0.31205028      -2.57840877        0       0.66226179       0.35924223       0.08568259      -1.21374220      -1.85034675       2.11744450      -6.37921867     -30.01493566      -3.31950519
H       -1.73103640      -0.46813315      -0.72910548        0       0.19660507       0.11770685      -0.29373914      -0.48842807       1.01465803      -1.75977043     -13.06118336       0.57498075      -4.18296938
H       -0.84127892       0.15807426      -2.54731529        0      -0.42464471      -0.16773271      -0.01980329      -0.14853339       2.29154500       2.53930271       8.26345485      27.92200735       1.23162672
12
Properties=species:S:1:pos:R:3:molID:I:1:momenta:R:3:force_mace:R:3:forces_xtb:R:3 Nmols=1 Comp=DMC(1) energy_mace=-587.9022058386678 energy_xtb=-577.8889425431731 pbc="F F F"
C        0.29222240      -0.50586998       0.09155594        0      -1.24211235      -0.31228485       1.67618137       5.69310910      -1.17102303       0.29569723       5.36502866      -1.20766018      -0.06185342
O        1.22903312      -1.25920706      -0.32907375        0       1.06940267       1.50813790      -0.89256761      -3.58585577       2.13504473       1.45340189      -3.45327093       2.60451581       1.43440445
O        0.69433586       0.52933122       0.87627604        0      -0.83626567      -0.13311591       0.32307314      -0.94659362       1.38610063       0.81035554      -0.20502096       1.71593972       0.33084964
O       -0.99327264      -0.66429006      -0.30662224        0      -0.22136205      -0.09796146      -0.01399446      -0.84886440       0.72237303      -0.50161546       6.75937623      -6.28573710      11.51095740
C       -0.06923404       1.84672694       1.18796741        0       0.57062719      -0.52412834      -0.34657480      -0.05827736      -5.53624538       3.63891684      -0.07209523      -5.49745511       4.06064125
C       -1.18525782      -0.03419145      -1.44885622        0      -0.05421355      -1.63506840       0.81810295      -0.77116103      -0.65434565      -2.54796569      -1.35317373       6.65864827     -12.02116653
H       -0.35335371       1.89056679       2.37888848        0       0.01442659       0.34707423      -0.51313936       0.14111590      -0.79261948      -2.37425485      -0.03228544      -0.90932941      -2.66296602
H        0.49807186       2.65109108       1.17371312        0      -0.07974479       0.36003385      -0.24134627       2.81796153       2.99081997      -0.98499728       3.08523740       3.17926049      -1.06790547
H       -0.79429220       1.73320756       0.50012969        0       0.21608705       0.06818254      -0.13498421      -2.55323246       0.64242746      -1.57608325      -2.92405514       0.57846623      -1.60644077
H       -0.52618921      -0.28620423      -2.29615808        0       0.45966217       0.30593072      -0.56412487      -2.29393835       1.81060303       0.20615384       3.10241017      -4.57484479       0.04280154
H       -1.81916784      -0.44844719      -0.73435844        0       0.35488276      -0.00219034       0.01499319       1.32988151       0.59791656      -1.19336806      -8.00119184       0.65459442      -2.72104348
H       -1.17788362       0.39548636      -2.54664608        0      -0.25139003       0.11539006      -0.12561906       1.07585494      -2.13105187       2.77375926      -2.27095918       3.08360164       2.76172141
12
Properties=species:S:1:pos:R:3:molID:I:1:momenta:R:3:force_mace:R:3:forces_xtb:R:3 Nmols=1 Comp=DMC(1) energy_mace=-587.9946841373408 energy_xtb=-577.3839409554934 pbc="F F F"
C        0.40732939      -0.51641515       0.18558033        0       1.95142861       1.37438149       0.82045463      -5.28846657       4.72340996       0.52153935      -4.11047323       3.91704398       2.41396221
O        1.18616488      -1.15428064      -0.33096035        0      -0.96756205       1.42130155      -0.25260531       4.06891821      -3.60829450      -1.70591801       4.18699710      -3.50710627      -2.23794190
O        0.62299841       0.55354395       0.92766150        0      -1.61959993       0.34038038       1.21504230       0.46423926      -1.34964040       1.10981990       1.08219897       0.70415178       1.10820347
O       -1.01806886      -0.65718982      -0.32261610        0      -0.34478045       0.01418807      -0.49628963       1.59027761      -0.13203498       1.91080765       4.79288921      -7.81430105      14.00830123
C       -0.00886273       1.77315794       1.09059207        0      -0.31325598      -0.01506640      -1.99524278      -3.63340936       1.02915452       2.52737109      -3.17935304       0.70080532       2.04563747
C       -1.11000579      -0.17996428      -1.47382953        0       0.95720000      -2.13216836       0.37543446      -4.16946108       0.51582881       0.07122043      -2.26409927       5.58326615     -15.82634392
H       -0.58129086       2.03059801       2.25870117        0      -0.07977879      -0.31683734       0.11707366       2.29674034      -1.11928424      -3.14414874       2.12072736      -1.02670607      -2.64558557
H        0.69103698       2.50023316       0.79783611        0       0.27182066      -0.99856541      -0.06383518       0.92293896       0.80446111       0.22666490       1.01237541       1.17856963       0.41085229
H       -0.89006843       1.99949091       0.47796359        0       0.28106886       0.00894169       0.39726503       0.22830613      -0.58040689      -0.23961453      -0.04657908      -0.72648412      -0.40096128
H       -0.61601054       0.08762488      -2.27033702        0      -0.00906296       0.44649011      -0.48747289      -0.35701975       1.31590164      -2.85006643       8.91264376      -1.74767219      -2.39058702
H       -1.82815767      -0.42376590      -0.63983325        0       0.14300579      -0.04989094       0.22137620       0.41207870       0.03076974      -0.48021164      -6.84808294       0.83059624       0.20889625
H       -1.65503324       0.32720894      -2.33324239        0      -0.27048378      -0.09315485       0.14879952       3.46485755      -1.62986479       2.05253603      -5.65924427       1.90783658       3.30556677
12
Properties=species:S:1:pos:R:3:molID:I:1:momenta:R:3:force_mace:R:3:forces_xtb:R:3 Nmols=1 Comp=DMC(1) energy_mace=-587.488664618952 energy_xtb=-574.6715451425158 pbc="F F F"
C        0.39054590      -0.36509102       0.15617098        0      -0.84306541       0.29284763      -2.01919634       1.66984795      -4.11583287      -1.86355677       0.43468172      -4.18639575      -2.01574114
O        1.20948859      -1.10450121      -0.36863537        0       0.43377869       1.50331969      -0.41420527      -0.56168931       2.07624781       1.40506367       0.12935898       1.83368315       1.33880575
O        0.53869247       0.54445817       1.05453479        0      -1.02536706      -0.02415514       3.03913692      -0.01167037      -0.47368255      -0.02707903       1.27280092      -3.06616387      -0.29456914
O       -0.94950295      -0.67446506      -0.25907852        0       1.48895262      -0.28272267       1.34915311      -1.38714691       1.56299705      -1.66054986       6.16454068      -0.07207752      14.97400519
C       -0.06614101       1.77640846       1.00539760        0       0.36660915      -0.33435939      -1.13665092       1.44668006       0.11703748       1.44920191       0.50542384       1.47472653       1.45980797
C       -1.07210537      -0.33727533      -1.50178083        0      -0.14065983      -1.84828556      -0.81993145      -4.39967120      -1.20151049       1.87836335      -1.77128300      -5.33857648     -11.77542775
H       -0.21162774       1.71319466       2.15487865        0      -0.01061785       0.10380397       0.53726604      -1.35493263       1.28383063      -1.46929026      -1.14086750       1.94641909      -1.63686633
H        0.95694576       2.24423691       0.83401518        0      -0.59115628       0.37100366       0.00897787      -1.63684311       1.07732330      -0.61827892      -1.94576363       1.72613598      -0.24162107
H       -0.96726725       2.02212794       0.22740533        0       0.45546433      -0.07107249      -0.13691085       2.05296098      -0.53255026       1.98457152       2.06348638      -0.72984255       2.03364700
H       -0.93381249       0.32095174      -2.19287248        0      -0.25296492       0.39444951      -0.09659768       0.08416542       2.23438929      -3.14979966      11.60824746       5.94624118      -1.39826649
H       -1.80975092      -0.42529972      -0.85479351        0      -0.24852914      -0.17792435      -0.09085464       1.82710315      -1.08576432       0.56769526      -8.54460028      -0.14862344      -1.19302859
H       -1.57015577       0.29820588      -2.43734293        0       0.36755570       0.07309513      -0.22018680       2.27119596      -0.94248506       1.50365880      -8.77602557       0.61447369      -1.25074540
12
Properties=species:S:1:pos:R:3:molID:I:1:momenta:R:3:force_mace:R:3:forces_xtb:R:3 Nmols=1 Comp=DMC(1) energy_mace=-587.8793702550339 energy_xtb=-577.3311111626616 pbc="F F F"
C        0.36579761      -0.40818444       0.06392185        0      -0.46918642      -0.02593539       0.43592738       0.26083995       1.96656695       4.15652088       0.01954561       0.75687232       2.80393014
O        1.26227278      -1.01552715      -0.37571536        0       1.96883803       1.06562451      -0.56926660       1.55432326      -0.40508206      -0.77820035       2.38869856      -0.35858460      -0.92553133
O        0.45556382       0.49592572       1.16998763        0      -1.24948566      -2.00449065       0.99787010       0.40688350       0.04817667      -1.26386847       0.97195062       0.27096436      -0.90525436
O       -0.91499955      -0.61294056      -0.25363879        0      -0.52248624       1.64376192      -1.42150139      -0.52136013       0.72084051      -1.52315417       6.21100756       3.90132884      11.70767990
C       -0.01156556       1.80523240       1.05300658        0       1.03410955       1.86001392       0.35960973      -1.48251983       2.88335580      -4.83637586      -1.78658860       3.10821172      -4.53133517
C       -1.14255636      -0.48457652      -1.57838325        0      -0.87457718      -1.46822703      -0.31444709       0.50361455       1.71342615       1.40362679       0.19206126       3.56359619      -8.78183175
H       -0.51207855       2.20594866       1.88618144        0      -0.65977085       0.66434684      -0.08492642      -0.49686757      -0.91355952       1.48039229      -0.99379928      -0.67823389       1.25785039
H        0.50816012       2.90871870       0.75030460        0      -0.18538149       0.03843327       0.21923918       0.57046772      -2.70264486       0.63573574       0.95141803      -3.09073700       0.49045334
H       -0.76215372       1.90761645       0.04436278        0      -0.10441495      -0.36802591       0.06650130       1.26771300      -0.99182644       2.13286664       1.00751524      -0.66000559       2.54263781
H       -0.73186232       0.61335156      -2.01729155        0       0.08024814      -0.59061401       0.83877986      -1.93045874      -3.87851211      -0.14637230       0.75040128       2.35238338       2.80242448
H       -1.53668054      -0.96292333      -0.78514250        0       0.52566893      -0.65930951       0.16361331      -0.87836603       0.01617206      -1.63576398      -8.93340958      -5.74938822      -2.56470574
H       -1.14153046      -0.10386784      -2.51452894        0       0.45643815      -0.15557797      -0.69139936       0.74573031       1.54308684       0.37459280      -0.77880069      -3.41640750      -3.89631772
12
Properties=species:S:1:pos:R:3:molID:I:1:momenta:R:3:force_mace:R:3:forces_xtb:R:3 Nmols=1 Comp=DMC(1) energy_mace=-587.4314571392059 energy_xtb=-578.0882312190613 pbc="F F F"
C        0.40052732      -0.40772206       0.18569275        0       2.09836548      -0.43393797       1.54559614       2.25490095      -0.18114393      -2.03267707       0.51153102      -1.07862306      -1.70773591
O        1.36309850      -0.93885433      -0.39997457        0       0.14275745       1.59362426       0.07529831      -3.22744043       1.81719233       2.50270011      -1.88085705       1.65811415       1.22145410
O        0.39619834       0.43438093       1.21398691        0      -1.00604299       0.17222797       0.72563524      -0.12259485       2.09758072      -0.46856255       0.02283543       2.12562035       0.72455981
O       -0.94802715      -0.56799320      -0.32566368        0      -0.42128191      -0.58832334      -0.62441288      -0.23349075      -0.75283077       1.13305040       3.55157338       4.72479966      10.16446067
C       -0.06475294       1.93805531       1.04098924        0      -1.21293885       1.02111223      -0.15678635       3.63668361      -3.54769500      -3.99775222       3.52351199      -2.89774742      -4.13800383
C       -1.21037451      -0.62380632      -1.60846676        0      -0.47751208      -1.17552079      -0.69755014       2.11091021       1.82028995       1.89705263      -4.84559004       0.41864852      -2.81564694
H       -0.72083865       2.24003587       1.71479053        0       0.13607477      -0.16020994      -0.05527689      -1.84955446       0.97378857       3.45241510      -1.93375534       0.89246748       3.94277989
H        0.93073475       2.64485526       0.96583197        0       0.66610341      -0.51499616       0.18717579      -2.43205752      -1.84248891      -0.04480193      -2.52590442      -1.84012999      -0.23840425
H       -0.79246907       1.78305177       0.19264897        0      -0.43515882       0.55122088      -0.17291761       1.27686951       0.95900609       0.30826807       1.38494791       0.87737381      -0.17329038
H       -0.54975431       0.47286918      -2.15201424        0       0.04806120       0.09502731      -0.63709100      -2.15855885      -3.05761155       0.87658117       1.76701229       5.12366667       1.53942870
H       -1.28981712      -1.42279900      -1.04584980        0       0.07996668      -0.53414511      -0.07239807      -0.30390276       0.59317561      -0.65602541      -1.39251176      -6.86337028      -1.57622728
H       -0.78654515      -0.19177541      -2.37513713        0       0.38160566      -0.02607934      -0.11727254       1.04823535       1.12073690      -2.97024829       1.81720661      -3.14081988      -6.94337457
12
Properties=species:S:1:pos:R:3:molID:I:1:momenta:R:3:force_mace:R:3:forces_xtb:R:3 Nmols=1 Comp=DMC(1) energy_mace=-588.3104953547121 energy_xtb=-584.3579010697266 pbc="F F F"
C        0.45301107      -0.39770667       0.22561622        0      -1.66617275       0.65116656      -0.08547432      -3.93930190       1.84851662      -1.25862889      -4.24515302       2.41658618      -0.62693151
O        1.35854714      -0.83684855      -0.37711465        0       0.60334369       1.20061709       0.46965890       0.62917977      -0.12683924       0.66071970       0.91818787      -0.32162212       0.50112627
O        0.33514505       0.49541045       1.25317408        0      -0.99398922       1.67396723       0.32561607      -0.52537238      -0.08644847      -1.83334272      -0.47051608      -2.65417726      -1.13717101
O       -0.94931188      -0.60748727      -0.34338782        0       0.53046246      -0.22890296      -0.01010750       1.46361661      -0.57180819      -0.37207736       5.39442987       4.84344312       7.95394710
C       -0.11770115       1.90226933       1.01905351        0      -0.68956446      -1.96371905       0.61992947       2.02586981      -2.21505023       1.65649227       1.04738408      -1.43945029       1.43861902
C       -1.09588143      -0.64216300      -1.65184811        0       2.17259145      -0.47928936      -0.46730107       0.20534532      -2.28211274       2.37512178      -1.61683029      -3.02322936      -2.26672449
H       -0.55002305       2.11753801       2.01701434        0       0.57720812      -0.28650178      -0.40520963      -0.27377396       0.28602507      -0.86441915       0.06377554       0.30554363      -0.96077037
H        0.91865608       2.07319441       0.94744103        0       0.48148477      -0.08636925      -0.08825544      -0.12441996       0.74268050      -0.10044767       1.13146347       2.79519655       0.00753842
H       -0.61686249       2.29692159       0.14583229        0       0.08406639       0.25068688       0.00500683      -0.33164305      -0.60257494       0.03772806      -0.60810945      -0.94367172      -0.01888936
H       -1.27942678       0.02354269      -2.40419492        0      -0.89248266       0.27358285      -0.72418338       0.10738051       0.41532499      -0.12925765      -4.10003111       4.23317142       0.04011609
H       -1.38151350      -1.57747948      -1.31018944        0      -0.29713166       0.09998219       0.22953288       0.17594717       2.03943643       1.11731788      -3.68653118      -3.23702215      -3.79349649
H       -0.44690980      -0.84629185      -2.39259852        0       0.09018386      -1.10522039       0.13078717       0.58717207       0.55285020      -1.28920625       6.17193031      -2.97476799      -1.13736366
12
Properties=species:S:1:pos:R:3:molID:I:1:momenta:R:3:force_mace:R:3:forces_xtb:R:3 Nmols=1 Comp=DMC(1) energy_mace=-588.1793039772984 energy_xtb=-579.5492974239162 pbc="F F F"
C        0.31723763      -0.31841479       0.15210565        0      -0.91970538       1.05338045      -1.39095653       0.59578416       0.26078969      -0.19305801       0.90985485       0.92283402       0.31765356
O        1.34282108      -0.73819655      -0.29531554        0      -1.34456120       2.01464595       1.61542429      -0.07267198      -0.36531912      -0.06940139      -0.28704258      -0.46658675       0.15176387
O        0.26769932       0.54927106       1.19709143        0      -0.73349397      -0.20590364      -1.65080498       1.89155101      -2.23875222       0.04725298      -0.32463644     -12.87288142       1.67305781
O       -0.92334844      -0.59049123      -0.37925647        0       0.33621181       0.95084150      -0.88080037       1.33144258       1.03188528       2.25249646       8.85768355       7.07267742      13.05003351
C       -0.01968679       1.74295016       1.06716046        0       1.43753714      -0.71906405       1.71877489      -7.26280792       5.18263846       3.31660959      -8.50367041       8.11244379       3.28806511
C       -0.94261155      -0.75655105      -1.74049686        0       1.93621928      -2.88546514      -1.36555290      -1.37492455      -1.72815381       3.33355466       3.25553718      -1.60126789      -7.59274178
H       -0.45578609       2.20012160       2.17000648        0      -0.00468307       0.03903992      -0.14380323       0.75119574      -1.06523702      -2.01700020       0.91634529      -1.09831489      -2.27737018
H        0.87932267       1.94086725       0.97111368        0      -0.18803368      -0.58045308       0.00400445       4.44383843      -1.25078732      -0.39217378       8.65108307       6.28043404      -1.25348012
H       -0.69049948       2.24150813       0.37895022        0      -0.41402846      -0.25414808       0.02140608      -0.03219990      -0.35499866      -0.56544052      -0.60810473      -0.76571474      -0.78872533
H       -1.75724119      -0.21051608      -2.10060541        0       0.19616471      -0.60181455       0.78659257       0.04103041       0.49400327      -2.55577557      -0.47290505       0.50057708      -1.93969907
H       -1.50443893      -0.90798496      -0.90720465        0       0.01577432       0.99950616       0.52848626      -0.55410802      -0.40457630      -1.17138982     -11.59617583      -6.69762320      -3.21369316
H       -0.30552128      -1.62774297      -1.93500744        0      -0.31740150       0.18943455       0.75722948       0.24187004       0.43850775      -1.98567442      -0.79796890       0.61342253      -1.41486423
12
Properties=species:S:1:pos:R:3:molID:I:1:momenta:R:3:force_mace:R:3:forces_xtb:R:3 Nmols=1 Comp=DMC(1) energy_mace=-587.4810286204766 energy_xtb=-578.534034116733 pbc="F F F"
C        0.25629486      -0.22460995       0.06793786        0       0.15781284       0.36549654      -1.11131718       2.54319103      -2.63701266      -0.62791492       0.97113926      -1.21278782       0.34030696
O        1.32284816      -0.66720214      -0.23453668        0       1.17471728       0.78113409       0.09567745       0.96058268      -0.78445457      -1.65669172       1.46067416      -1.09244474      -1.52012852
O        0.22374485       0.48669125       1.13044518        0      -0.87768601      -0.51733743       0.41757267       0.21009231       3.12447004       3.95973658      -1.83629598      -8.12412578       4.37350209
O       -0.89253881      -0.55743781      -0.39228915        0      -0.55519864      -0.14553599      -1.48122463      -4.38921247       0.15703280      -5.21504985      -1.40341699       0.71149751       1.73653587
C       -0.02014769       1.82734557       1.21934436        0      -0.50346822       1.50842547       1.66605320       0.32692629      -0.84367509       1.55202587       3.19020327       5.80268888       1.32981470
C       -0.85120493      -0.93587334      -1.72752209        0       0.57060656      -1.85342558       1.11433396      -3.18282859       0.95832563       0.89843559       2.26925235      -1.13405225      -2.89630216
H       -0.30213248       2.26205217       2.26782106        0       0.25308629      -0.00788710       0.60663561       0.85344309      -1.06196393      -2.13189257       0.12471482      -1.34072674      -1.80916113
H        1.20658411       1.26986797       1.07231027        0      -0.27737738      -0.35698164       0.38537505      -1.34925562       1.46412547       1.19248318      -0.40668353       5.16104704       0.43039282
H       -0.68674725       2.06188716       0.44036760        0       0.18818301       0.12287347       0.05825664      -0.40065298       1.23544236      -0.52503612      -1.12413389       1.11820801      -0.65873667
H       -1.73887997      -0.62606154      -2.28782020        0       0.46859012      -0.80418636      -0.58267532       1.03530813       0.29515532       1.18641865      -1.43350288      -0.72736754      -1.62614977
H       -1.87265306      -0.08579894      -1.51593151        0      -0.08771929       0.53101492      -1.03187563       4.19763594      -3.40680713       0.87835067      -0.05165264      -0.27394143      -0.13018341
H       -0.24382051      -1.85150204      -2.01721772        0      -0.51154657       0.37640961      -0.13681181      -0.80522981       1.49936177       0.48913464      -1.76029795       1.11200485       0.43010922
12
Properties=species:S:1:pos:R:3:molID:I:1:momenta:R:3:force_mace:R:3:forces_xtb:R:3 Nmols=1 Comp=DMC(1) energy_mace=-587.7972078981695 energy_xtb=-579.5907045704432 pbc="F F F"
C        0.33423878      -0.28467338       0.00993290        0       1.36291954      -1.36190981       0.07801335      -0.62561507       1.29837578       1.76934139      -3.04705423       2.17190666       2.18237303
O        1.42950774      -0.64159377      -0.28603735        0       1.57370589      -0.02504337      -1.67685180      -1.40107147      -0.07142433      -0.55796747      -0.39068884      -0.56514383      -0.43067949
O        0.15993557       0.53498642       1.22247398        0      -1.28130037       1.77540783       1.69115551      -0.15515916       0.68594846      -0.43905506      -1.31111521     -10.64060506      -2.44750977
O       -0.95697855      -0.54312559      -0.53719279        0      -0.80095815       1.06613007      -2.28059085       1.79426476       1.95902734       0.95497929       2.54610922       1.58768750      10.80240967
C       -0.08031703       1.88590697       1.36125585        0      -0.69343656       0.04375774       1.56560653      -0.14726512      -1.15316608       1.29500673       3.06079866       5.31242109       1.94712097
C       -0.90508255      -1.05316718      -1.67501674        0      -0.25159519      -2.74979340      -1.00887560      -0.71874413      -0.55177088      -6.63934552       0.04156050      -3.40497516     -10.38253940
H       -0.30564934       2.26351521       2.37310060        0      -0.51763386       0.36645845       0.35290213      -0.53009214      -0.07551844      -0.76975313      -0.91404249      -0.94501976      -0.38401415
H        1.01715675       1.28329779       1.57822105        0       0.15930950      -0.03309907       0.31693021       0.82645805      -0.49811842      -0.60824948       0.36649200       4.33959836      -0.07754229
H       -0.55647771       2.44508541       0.60315411        0       0.27178974       0.35552822       0.33518099       0.21802575      -0.29274949      -0.54685542      -0.51052911       0.11031227      -0.75845027
H       -1.59356613      -0.92634667      -2.54741454        0       0.01132723      -0.01903963       0.19902913       1.21585833       1.12600309       2.27260895      -2.49579783      -2.99883290       1.01375118
H       -1.23461287       0.00128708      -2.02207742        0       0.18536464       0.56065881      -0.02603424       0.71892184      -4.44402781       1.99726488       3.40294096       2.00006296      -2.45335680
H       -0.19262707      -1.98622788      -2.03412312        0      -0.01949242       0.02094415       0.45353462      -1.19558164       2.01742081       1.27202484      -0.74867363       3.03258788       0.98843734
12
Properties=species:S:1:pos:R:3:molID:I:1:momenta:R:3:force_mace:R:3:forces_xtb:R:3 Nmols=1 Comp=DMC(1) energy_mace=-587.5515223637314 energy_xtb=-576.2918364790985 pbc="F F F"
C        0.39264295      -0.32330613       0.06460690        0      -0.26839391       0.90598998       0.70533955      -0.38087314       2.43392811      -1.83072446      -2.81772699       1.99571216      -0.60583846
O        1.47422742      -0.61935146      -0.39693580        0      -0.17887723       0.88060424      -1.31003954      -3.32433852       0.32908837       1.75660787      -1.65375815       0.20077185       1.11163713
O        0.13552455       0.61567136       1.26014296        0       0.34859441       0.27770167      -0.35064013       0.81570469      -3.58988930      -0.39772973       1.81235014     -15.19058794      -3.79755027
O       -0.92224939      -0.43202450      -0.63413100        0       1.49519054       1.72786840      -0.62228388       2.70608692      -1.69020266      -0.46956024       2.66565016       0.87481112       5.48115765
C       -0.14939482       1.84735453       1.55242919        0      -0.02490508      -0.29206476       1.45979443       0.85760661       0.25101851      -1.69528221       1.63014645       8.06703570       0.86496019
C       -0.96492482      -1.25149720      -1.78803856        0      -0.71426645      -2.76501742      -0.39081326      -0.15501823       5.30494381       2.14943887       1.80719700      -8.56562851      -2.12896768
H       -0.76009976       2.23719564       2.30486727        0      -0.56519413      -0.29885296       0.19821010      -0.66043868      -0.30796424       0.95726730      -1.94344202      -0.66198500       0.87736983
H        0.86322704       1.29901803       1.77224997        0      -0.46876582      -0.21338297       0.11254219       0.27191938      -0.69252061       0.40989259       1.18917873       4.34545673       2.12793159
H       -0.14224594       2.47544303       0.70676342        0       0.58333607      -0.31579867      -0.10114005      -0.49422443       1.59429943      -1.13421444      -0.22860881       1.29643719      -1.14466747
H       -1.62622316      -0.61586031      -2.48412813        0       0.39224759      -0.07990112      -0.02902835       2.02990441      -1.95613441       1.61963197       0.43882907      -2.22034892      -1.49245264
H       -1.20637116      -0.28818919      -1.58003006        0      -0.41483039       0.46050823       0.41033431       0.58178947      -3.96820804      -0.80799474      -0.49812631       6.76170475       0.11842323
H       -0.12645818      -2.18702727      -1.67432946        0      -0.18413560      -0.28765463      -0.08227538      -2.24811849       2.29164104      -0.55733279      -2.40168926       3.09662085      -1.41200309
12
Properties=species:S:1:pos:R:3:molID:I:1:momenta:R:3:force_mace:R:3:forces_xtb:R:3 Nmols=1 Comp=DMC(1) energy_mace=-587.8133240791084 energy_xtb=-577.6456726729787 pbc="F F F"
C        0.36743820      -0.17568143       0.03708167        0      -0.68553268       2.85909704      -1.54068953      -1.37400082       1.19852248      -0.48705299      -1.41847110       1.18923253      -1.75193320
O        1.37578856      -0.53589223      -0.42708439        0      -1.66192661       1.49981870      -0.06746461       2.55526201      -0.73013929      -0.20740483       2.69949552      -0.95504205       0.40510148
O        0.19847596       0.54131943       1.20565394        0       1.11412218      -2.48193755      -1.26291508       0.31320086      -0.39088471       0.96723796       2.53641859      -8.26357371      -7.73799957
O       -0.77822496      -0.38301411      -0.64817999        0       2.23248525       0.03166074      -0.15250505      -2.57086058      -1.83186614      -1.55371886       2.37814695       2.34294089       3.91428422
C       -0.14461871       1.82698003       1.60420068        0      -0.52154254      -0.69883044      -0.12989708      -0.03944684      -4.91149568       0.99868532      -0.26597665       5.00973293       1.11201132
C       -0.96562377      -1.32634966      -1.71319582        0       0.36013770       0.54212270       1.97334949      -1.80801933       2.86138221       1.30263455       0.57953362      -5.10301550      -3.08026235
H       -0.97808045       1.87335714       2.20719418        0       0.08672224      -0.13166633      -0.41750745      -1.53470359       1.38349169       0.71975275      -3.09204995       0.34452533       0.29469218
H        0.12722102       0.89210022       2.03665889        0      -0.52047560      -0.32589375       0.57882799       0.75870745       1.32408580      -1.48868976       1.48019287       0.74409843       8.75779062
H        0.00740808       2.57075858       0.92532297        0       0.06644592       0.24710582       0.58519608       0.72032603       1.47952486      -1.28418991       0.31247120       1.79605086      -1.53358363
H       -1.45401457      -0.90248929      -2.59003034        0       0.07547419      -0.66171167      -0.01505935       1.02500765      -1.18113452       0.33254569       2.04978003       0.10640291      -1.66063115
H       -1.64501727      -0.63206819      -1.34363380        0      -0.29208329      -0.27089966       0.47075017       2.80511769      -2.47178589      -0.14205331      -6.20689155      -1.12453937       0.28485294
H       -0.57523446      -2.52999132      -1.83501052        0      -0.25382675      -0.60886560      -0.02208557      -0.85059052       3.27029921       0.84225340      -1.05264955       3.91318675       0.99567714
12
Properties=species:S:1:pos:R:3:molID:I:1:momenta:R:3:force_mace:R:3:forces_xtb:R:3 Nmols=1 Comp=DMC(1) energy_mace=-588.4376410833986 energy_xtb=-573.8025439113242 pbc="F F F"
C        0.31873568       0.01733296      -0.05697245        0      -0.15479649       1.23250498      -1.02688272       3.60495636      -3.04938933      -0.96225993       5.01564131      -1.99726801      -1.66953644
O        1.35687584      -0.44348369      -0.46016067        0       1.02334940       2.10404964      -0.83178969       1.27331215       1.05032890      -0.35925106       2.36327383      -0.20573986       0.26485306
O        0.24683814       0.43925698       1.21236604        0       0.37660335      -1.15084106       0.65905721      -1.03524663       1.81409499      -0.71538316       4.58712064      -7.63586943     -18.41056720
O       -0.73528207      -0.41332193      -0.70395631        0      -1.18577523      -0.19004414      -1.32224630      -1.74100470       3.94057795       0.88028403       6.04623854      16.37004892       5.93675827
C       -0.23812974       1.69134529       1.61014782        0      -1.96863097      -1.04936000       0.16670740      -0.97296443      -2.09690120      -0.19040511      -2.90455803       6.35191945       2.22178067
C       -0.94372049      -1.27473652      -1.58769166        0       0.21137632       0.60516164       0.91382701      -0.33250407      -4.00356506      -0.95657682      -2.20577732     -11.88498942     -11.93363239
H       -1.31232850       1.98042767       1.83843345        0      -0.02477807      -0.12102099      -0.67599655       1.30801507      -1.05459614      -0.27492736       0.89745595      -1.26979797      -1.13424252
H        0.06997621       0.69657940       1.93160624        0       0.28264997      -0.43675348       0.49233381      -0.78759040       2.88934185       2.66084526      -3.64557221       4.32907035      20.28284057
H        0.25969617       2.56163350       1.24106350        0       0.62298395      -0.53591233       0.24784880       0.70514213      -0.33527941       0.04963416       0.44220309       0.00777347      -0.37156559
H       -1.00083492      -1.31261503      -2.74466521        0       0.60772161       0.27779585       0.24234096       0.02365062       1.60342159       2.03109255       0.66733615       1.60764318       1.93945616
H       -1.43227845      -0.86368715      -0.66884968        0       0.08779901       0.03948932       0.33889560      -2.37881740      -1.36354055      -2.17127661     -12.51428184      -6.39619114       2.36633793
H       -0.83844850      -2.37727858      -1.39618928        0       0.12149715      -0.77506943       0.79590447       0.33305129       0.60550642       0.00822405       1.25091990       0.72340045       0.50751749
12
Properties=species:S:1:pos:R:3:molID:I:1:momenta:R:3:force_mace:R:3:forces_xtb:R:3 Nmols=1 Comp=DMC(1) energy_mace=-588.7233194583121 energy_xtb=-579.7497248529223 pbc="F F F"
C        0.36054867       0.00787864      -0.11366881        0       0.60230362      -0.88576912       0.06191030      -1.31289220      -1.32638670       1.67682888      -0.30842347      -0.04333459       0.65345318
O        1.41921758      -0.28954665      -0.52092316        0       1.63813933       2.79228741      -1.81170188       1.05864150       0.22427928      -1.06298882       1.58636078      -0.82370276      -1.09246884
O        0.23915959       0.42807439       1.25444186        0      -0.47056936      -0.00986294       1.36862741      -0.34823611      -1.38142676       0.54992310       1.70690112      -6.13696790      -6.28384318
O       -0.85293992      -0.33118298      -0.69712714        0      -2.73400177       2.58666958       1.11030267      -1.45725535      -0.01377830       0.86977089       5.37342203       7.09604709       7.00917237
C       -0.33197000       1.56741209       1.59847637        0       0.01193524      -1.40032862      -0.71099322       1.03208038      -0.50193522       0.09742700      -1.30363957       3.05691260       4.41595061
C       -0.91310689      -1.43231236      -1.50719771        0       0.62043457      -2.82746308       0.56797181       2.45227867       5.49770313      -3.55846745       5.04168511      -0.90830608      -9.34330693
H       -1.37143521       1.82125790       1.15214574        0       0.29046210      -0.30444399      -0.40233611       1.97465673      -0.49523008       1.19303546       1.75884502      -0.35241538       0.71118907
H        0.22231965       0.54506879       2.49096283        0      -0.18231363      -0.17197829       0.09181595      -1.48008545       1.77868205      -3.05818354      -1.88731994       3.57227100       1.78303947
H        0.47497206       2.32414822       1.51016389        0      -0.59848364       0.19067934       0.38418399      -1.35908283       0.78963599       0.34869445      -1.11401585       0.59791355      -0.12867490
H       -0.37026941      -0.92911920      -2.49466625        0       0.39312968      -0.13851792       0.13998427      -0.93659434      -2.05541893       0.36143696      -1.32245329      -2.16256864       1.24691114
H       -1.58700521      -0.93447100      -1.10129766        0       0.04913636       0.19160476      -0.42191385      -0.79306803       1.27961976       1.59104717     -11.64593871      -0.65527849      -0.33909874
H       -0.48461507      -2.28858643      -1.25126823        0       0.37982749      -0.02287713      -0.37785134       1.16955702      -3.79574422       0.99147590       2.11457678      -3.24057040       1.36767675
12
Properties=species:S:1:pos:R:3:molID:I:1:momenta:R:3:force_mace:R:3:forces_xtb:R:3 Nmols=1 Comp=DMC(1) energy_mace=-588.6307715628454 energy_xtb=-575.1995157663982 pbc="F F F"
C        0.38638660      -0.11607617      -0.04289049        0       0.34297505      -0.98354101       0.69239859       0.61373339       3.50091054      -0.66309735       2.17955437       2.37053225      -2.80684225
O        1.45815867      -0.09416768      -0.66073389        0      -0.87416880       3.27383224      -1.69269683      -4.06421922      -0.87420629       2.28784784      -3.54334864      -0.69818061       1.72758517
O        0.23463498       0.34420033       1.32798094        0       1.16895415      -2.51301273       1.21230794       2.51446147      -2.07684413      -1.98111487      10.41337718     -11.85698300     -10.19642770
O       -0.95939987      -0.24383821      -0.63926152        0       0.29106925      -0.48835171       0.26649335       5.64306017      -3.84169677      -0.88141937       9.47533771       7.27342243       6.32693722
C       -0.33146810       1.51622870       1.55365566        0      -0.99317431      -0.29294697      -1.17460918      -4.12137341       1.90770217      -4.49926252      -8.70943975      12.40287663      -4.41217801
C       -0.78134592      -1.46480517      -1.48639169        0       2.34095108       0.34571593       1.02477161       1.00440175      -0.37734328       0.54419208       4.47559158      -8.71626512      -4.87471671
H       -1.29439958       1.54005711       0.82137802        0      -0.38581214       0.01659646      -0.24230840       0.66872004       1.21654097       1.18552684       1.39950529       0.57394901       1.78016192
H       -0.22783487       0.70456166       1.98408385        0      -0.42013702       0.24468700      -0.59225437       0.38726204      -2.30200774       3.09362188      -5.93616483      -2.80025554      14.49703378
H       -0.07935594       2.51539207       1.77118014        0      -0.23218238      -0.09429401       0.17023477       0.96411039       0.06466337       0.44212207       2.01301717       0.69822193      -0.93326253
H       -0.35268071      -1.48132259      -2.47003605        0      -0.21703551      -0.08934808      -0.29046918      -0.44313381       1.38207646      -0.29713202       0.27605042       1.56125424      -0.26415594
H       -1.39644071      -0.86836769      -1.08407406        0      -0.21220234       0.07343377       0.23172350      -2.22399112      -0.05238686      -0.16689702     -11.77337886      -2.83610556      -2.13581817
H       -0.47285503      -2.53028579      -1.19011331        0      -0.80923704       0.50722911       0.39440819      -0.94303171       1.45259154       0.93561245      -0.27010164       2.02753333       1.29168321
12
Properties=species:S:1:pos:R:3:molID:I:1:momenta:R:3:force_mace:R:3:forces_xtb:R:3 Nmols=1 Comp=DMC(1) energy_mace=-588.5018070921849 energy_xtb=-575.8385429556083 pbc="F F F"
C        0.41400955      -0.08521671      -0.01032827        0      -0.02799532       1.59459747       0.36758354      -1.28639208       0.45053071       0.83878877       0.37792562       2.00121697       0.74826487
O        1.34889418       0.06080649      -0.69539021        0      -1.48471437       2.01282911       0.19246104       2.48723783      -0.08081054      -0.57767853       2.12200815       0.07222887      -0.26838256
O        0.30376916       0.20245620       1.34733805        0       0.46915202      -0.96478687      -0.50886947      -1.30886284       2.68109872      -3.10603495       7.47788287      -4.45645517      -5.57172091
O       -0.82815301      -0.37872458      -0.63945449        0       2.89848135      -1.85434640       0.12326986       0.35892270       4.36979476       3.97406273       4.91429084      13.22725776      15.22874043
C       -0.45861840       1.50122953       1.38744838        0      -0.98637349      -1.37485551      -1.23909947       1.03969410      -3.06457923       1.71754014      -1.74419146       2.02683826       0.11998376
C       -0.72831752      -1.35171113      -1.38154289        0      -1.68967698       0.85010947       1.58549833      -3.48938261      -4.64143411      -0.28403070       0.37315101     -15.28936631      -5.70577006
H       -1.33414375       1.82423932       0.85815941        0      -0.37593549       0.22079540      -0.36871783       0.40974384      -0.79607911      -0.09917963       0.28424902      -0.91302086      -0.33550687
H       -0.30164922       0.44779314       1.92528615        0       0.07018540      -0.26714025      -0.01878265      -1.49453296       0.43490177       1.08700522      -6.91755687       1.79502941       6.12882093
H       -0.01064767       2.20095918       2.00486820        0       0.37462772      -0.58313070       0.07455915       0.70597282       1.46267885       0.31653174       1.17261929       1.21403832       0.30377114
H       -0.63020006      -1.29895981      -2.40209844        0       0.00828734      -0.02265474       0.37722509       1.23392602      -1.27938250      -2.61303410       1.25915619      -0.51480569      -2.12392908
H       -1.42637252      -0.63834253      -1.26616492        0       0.59622657       0.42987123      -0.22898298       0.08151054       0.33428418       0.36499190     -10.45886882      -0.22224826      -6.59030332
H       -1.05752941      -2.33506361      -0.78000727        0       0.14773525      -0.04128822      -0.35614460       1.26216264       0.12899650      -1.61896259       1.13933417       1.05928670      -1.93396834
12
Properties=species:S:1:pos:R:3:molID:I:1:momenta:R:3:force_mace:R:3:forces_xtb:R:3 Nmols=1 Comp=DMC(1) energy_mace=-588.8187451590416 energy_xtb=-577.8204058389983 pbc="F F F"
C        0.41163797       0.00786435      -0.02738167        0       0.82102702       0.20612902      -1.05549343       3.28801487      -1.61580967      -1.21580404       3.46814381       0.17851701       0.03980740
O        1.37092396       0.18761667      -0.67706906        0       1.75500563       1.86849595       0.56665442       2.75064008       0.44466723      -0.80916368       3.53415371       1.51010664      -1.42873147
O        0.26136420       0.21858964       1.28118138        0      -1.90347797       1.40827401      -0.81987572      -1.39141793       1.59385347       1.76796713       4.89289419      -6.08859008       1.71392073
O       -0.66384718      -0.38634698      -0.54479160        0       1.20140379       0.22137597       1.81388360      -4.65532121      -1.61298190      -1.64915599      -2.22563847      -0.21920741       4.39351066
C       -0.47706267       1.34228413       1.36473831        0       0.92672580      -2.14811794       1.07482074       2.08358384      -0.54320186       4.98535815      -1.95195639       5.59126193       5.12315988
C       -0.91147432      -1.43253792      -1.39043482        0      -1.81698533      -1.68493605      -1.67692956       1.31947224      -0.23104294      -0.78688906      -3.10290829      -2.61733009      -4.71436897
H       -1.31760333       1.61885823       0.90051697        0      -0.39742683      -0.10525886      -0.13025881      -2.45156906       0.31096013      -1.52131530      -2.65825479       0.05925520      -2.07608163
H       -0.52778480       0.06504994       2.04390833        0      -0.02425194      -0.14348467      -0.13982341       0.54156421       2.01527678      -1.04578785      -1.16046218       1.77807587      -0.13435131
H       -0.02214787       2.21261805       1.86657414        0      -0.38640422       0.23767749      -0.57865970      -0.05710170      -1.10766173      -0.35187809       0.45646458      -0.35679718      -0.82935088
H       -0.42225054      -1.57126140      -2.32131877        0       0.21526308      -0.09277298       0.66640330       0.27770214       0.80806818      -0.51623351       1.29615329       0.98015823      -0.77917662
H       -1.31621555      -0.17609802      -1.23542477        0      -0.25287878       0.27922316       0.05454072      -1.01347008      -0.48146851      -0.24569369      -2.36390019      -0.27628115      -3.09064193
H       -1.01980191      -2.44534807      -1.10592625        0      -0.13800025      -0.04660510       0.22473787      -0.69209740       0.41934082       1.38859594      -0.18468927      -0.53916895       1.78230415
12
Properties=species:S:1:pos:R:3:molID:I:1:momenta:R:3:force_mace:R:3:forces_xtb:R:3 Nmols=1 Comp=DMC(1) energy_mace=-588.6058273097659 energy_xtb=-578.1497727593459 pbc="F F F"
C        0.53822565       0.00111542      -0.12827086        0       0.84843500      -0.53082036      -0.92380092      -2.80943310       0.09622482       1.68270106      -1.17897895      -0.07868170       0.90310396
O        1.54062170       0.27256447      -0.66523539        0       2.66947872       0.96281339       0.01449390       0.22332379      -0.37474442      -0.31088798       0.67018576      -0.02597795      -1.26425106
O        0.20074837       0.25911018       1.26753376        0       1.41318111      -0.82686217       0.02752235       3.24505689      -1.81738482      -0.34303272      11.27394355      -6.80514515      -6.09825771
O       -0.72010924      -0.43112574      -0.53390108        0      -2.27630601      -0.80893557      -1.98568536       1.13824301       0.71643173      -1.01717629       7.34377639       2.16146472       5.39771266
C       -0.54895428       1.30159976       1.48132881        0      -2.79813867       1.32007351       0.93965608       1.65276565      -0.50170175       1.21283589      -2.08412162       8.26621201       3.57398485
C       -1.01274217      -1.48755108      -1.47118782        0      -0.14468874      -0.25493592       0.36845115       1.07391019       0.35081919       4.03133465      -1.08013772      -1.45634802      -0.47908611
H       -1.40543415       1.26814184       0.96033091        0      -0.04527112      -0.27892157       0.28115299      -4.43225472       2.01377836      -1.67574020      -3.24809077       0.89139449      -2.17577619
H       -0.46584393       0.32784711       1.90398502        0       0.29218629       0.69170921       0.21054807       1.02566847       1.46797103       0.02274675      -5.58562446      -0.84631465       7.35739962
H       -0.03645890       2.28886962       1.56612950        0       0.26674864      -0.13593534       0.08675404      -0.37705193      -0.84094616       0.36414763      -0.34951507      -0.51153638      -0.57971675
H       -0.06374251      -1.57779408      -2.00074898        0      -0.19162588       0.04250386       0.69624676      -0.99303298      -0.64642524      -0.57341211      -0.54387101      -1.15901581      -0.24534443
H       -1.48719604      -0.47766063      -1.01561336        0       0.20121817      -0.43125374       0.32812421      -0.09806522       0.73971314      -1.12035416      -6.16026784      -0.02355011      -4.77921366
H       -1.38909766      -2.23477296      -0.69688825        0      -0.23521749       0.25056470      -0.04346328       0.35086996      -1.20373588      -2.27316252       0.94270173      -0.41250145      -1.61055518
12
Properties=species:S:1:pos:R:3:molID:I:1:momenta:R:3:force_mace:R:3:forces_xtb:R:3 Nmols=1 Comp=DMC(1) energy_mace=-588.7590216585629 energy_xtb=-577.6440442564681 pbc="F F F"
C        0.53795572       0.00218824      -0.17337718        0       0.30600768       1.07234921      -0.36377551       1.29286347       1.49389730       1.64281445       1.98486655      -0.03389133       1.18523382
O        1.62325870       0.30789436      -0.65847106        0      -1.07419909      -0.10528334       0.96365523      -4.06742050      -1.63297654       1.14984265      -3.76172592      -1.11572043       0.42456329
O        0.29194817       0.25294170       1.26065821        0       0.88473851       1.11802626      -0.68350172      -2.00463142       2.17163683      -2.08941116       3.27276457      -4.17763427      -8.15823857
O       -0.77684625      -0.44838785      -0.65023128        0       0.35705474       0.20708472      -1.41495431       0.39098163       1.31309650       0.30931591       8.88119241       7.35770564       8.69215577
C       -0.67230416       1.34053691       1.54605078        0       0.02460896      -0.70812533       0.33068379       2.33183271      -0.18979612      -0.89109279      -5.64380783       6.61311522      -1.77686194
C       -1.01974550      -1.51183242      -1.31220633        0       0.53984448      -1.73631364       1.93834352       0.88646277      -3.26812553      -2.37466054       0.86384199     -10.85802771      -7.69809779
H       -1.74635746       1.36958388       1.30125189        0       0.42765230       0.08781520       0.75813821       0.96437433      -0.68205374       0.07831079       1.14644821      -0.58731804      -0.41114565
H       -0.07716326       0.74308110       1.96717042        0       0.14360213      -0.09435575      -0.47027352       0.40103191      -1.74438236       0.53466647       1.38879173      -1.36665905      11.21502860
H       -0.20332610       2.32144844       1.70424644        0      -0.65480854       0.34672730       0.05459225      -0.72181976      -0.21329584      -0.43670380      -0.18029304      -0.10883612      -1.18366303
H       -0.13557960      -1.97822546      -2.00979240        0      -0.57045502      -0.12390412      -0.03436451      -1.14217108       1.71483179       1.02675039      -1.68011106       1.92802388       0.81808755
H       -1.58331426      -0.68739141      -1.30574549        0      -0.14086402      -0.05873675      -0.51312318       1.59896737      -0.75655224       0.30379905      -7.10882364       0.78099175      -5.36435408
H       -1.55043121      -2.54327401      -1.17938191        0      -0.24318214      -0.00528375      -0.56542025       0.06952856       1.79371995       0.74636859       0.83685603       1.56825046       2.25729204
12
Properties=species:S:1:pos:R:3:molID:I:1:momenta:R:3:force_mace:R:3:forces_xtb:R:3 Nmols=1 Comp=DMC(1) energy_mace=-588.2451428523061 energy_xtb=-577.3703988996518 pbc="F F F"
C        0.51077855       0.09262716      -0.16074231        0      -2.17275251       0.73871350       1.29511032      -1.69003458      -0.48213196       1.09083583      -1.15273334      -1.59696582      -0.19850932
O        1.56301433       0.33941064      -0.61315932        0       0.33115350       0.83007211       0.10192496       0.52566825      -0.32534255      -1.49075695       0.63312829      -0.30930699      -1.68428321
O        0.29868522       0.33728282       1.18503414        0      -0.20404177       1.63030482      -1.34021395      -0.16194443       0.14902638       1.01937377       6.11771086      -4.54873168      -9.24653243
O       -0.72283260      -0.40696187      -0.72863925        0       1.02735518       0.86434709      -1.40029245      -0.38399161      -1.12120447      -0.64240408       5.48508484       4.21680766       4.90871260
C       -0.55613823       1.26188119       1.57846918        0       1.14752033      -1.82391101       0.85558497      -4.85240032      -1.95603086       0.94142973     -10.42616328       5.78009754       2.41899566
C       -1.01956108      -1.67559539      -1.21147400        0       0.35885593      -1.56400909      -0.03509981      -0.42654699       0.14177411      -3.31039415       1.87246461      -9.13335034      -3.66084739
H       -1.78649697       0.93891497       1.75155859        0       0.36066446      -0.77516546       0.03599026       2.64985690       0.83074206      -0.78000296       2.76649089       0.45588365      -1.31951817
H       -0.07098321       0.56939065       2.04227761        0      -0.26074111       0.27695876      -0.02436155       1.25726070       0.01011943      -0.65228040      -0.23183533      -1.33629947      11.70156679
H       -0.57618962       2.31505349       1.55911290        0       0.13958704      -0.08904481      -0.28604478       0.97842650       0.55006431      -0.35375710       0.88987614       0.68609192      -1.04348537
H       -0.39055160      -1.99050515      -2.23771309        0      -0.11420857      -0.30120627      -0.01939821      -0.78507395       0.06883457       2.77046871      -1.17373729       0.53170907       2.76824175
H       -1.49895628      -0.89895848      -1.44500010        0       0.00554149       0.26404297       0.19030753       0.41180368       1.28564382       0.81221446      -7.58686930       4.40709538      -6.27719891
H       -2.02204282      -2.34342526      -1.13157987        0      -0.61893397      -0.05110261       0.62649271       2.47697585       0.84850518       0.59527314       2.80658290       0.84696908       1.63285798
12
Properties=species:S:1:pos:R:3:molID:I:1:momenta:R:3:force_mace:R:3:forces_xtb:R:3 Nmols=1 Comp=DMC(1) energy_mace=-589.0672790652019 energy_xtb=-574.2156312283762 pbc="F F F"
C        0.45003072       0.15770026      -0.11993304        0       0.26138363       0.71203019      -1.08374751      -0.41703051      -1.74050344      -1.75942450       0.91738349      -1.73842168      -2.95112595
O        1.50639268       0.38046711      -0.58747288        0      -2.13082960       0.12101056       1.18654987       1.24552116       0.04596543      -2.03816193       1.53273103      -0.13989714      -2.17221660
O        0.31346957       0.37790306       1.13823873        0       0.91653764      -0.44736652      -0.47502146       1.00389802      -2.89495859       1.05509218       5.63433759      -8.68122999     -12.16256195
O       -0.68447649      -0.39207692      -0.83386237        0       1.03684303       0.20617265      -1.57123435       1.68092494       0.07307245       1.23158548      17.58894402      13.50336668      16.80831097
C       -0.55627954       1.14915121       1.65936866        0      -0.07784430      -0.52162040       0.90331486      -2.50832337       0.13409086       0.51935699      -9.95088766       5.56120159       5.34121876
C       -1.06587235      -1.71229860      -1.23299614        0      -0.33762084       0.20346015       0.11079746       2.20944368      -0.23784473       1.40715900       0.04646135     -10.34961053      -1.45652092
H       -1.67503991       0.69135886       1.72863357        0      -0.52572568       0.03484364       0.16546298       2.17368005       1.34064992       0.10145931       2.04811707       1.53064901      -0.78910372
H        0.27472357       0.61787677       1.98046917        0       0.54449844       0.28320493       0.02157534      -0.90581418       0.27231942       1.10217916       1.37548186       2.26113273      13.19926345
H       -0.36166420       2.15124807       1.32074509        0      -0.01338747      -0.15694948      -0.00021982      -1.37602408       1.50253919       0.42833008      -1.23222277       0.77167067      -0.18984262
H       -0.35352757      -2.38682454      -1.87461932        0       0.32661979      -0.27644409       0.27145189      -1.19350077       1.75624029       0.95198060      -0.82121189       1.61155669       1.58480094
H       -1.17842621      -0.73137132      -1.30191008        0      -0.34207897       0.24668564      -0.68741578      -2.24036715      -0.94033795      -2.26616546     -18.04710561      -4.71535284     -17.17353990
H       -1.59944602      -2.30223384      -0.46191207        0       0.34160433      -0.40502729       1.15848652       0.32759220       0.68876715      -0.73339090       0.90797151       0.38493480      -0.03868246
