12
Properties=species:S:1:pos:R:3:molID:I:1:momenta:R:3:energies:R:1:forces:R:3:charge:R:1 Nmols=1 Comp=DMC(1) energy=-589.6902852101911 free_energy=-589.6902852101911 dipole="0.047700632944407496 0.06874121388294553 0.21174920784680284" pbc="F F F"
C       -0.06354920       0.02615914       0.03273994        0      -0.20574349      -0.65922844      -0.73874942     -59.12614012      -1.10455177      -1.74926628      -2.56666537       0.47135339
O       -1.09745824      -0.56171083      -0.33384407        0      -0.19241563       0.31853529      -0.22956831    -112.74520548       1.82972637       1.39048314       2.85535072      -0.46889466
O        0.59339279       0.04178514       1.16893291        0      -0.22991968      -0.46313604       0.30248678    -111.08309357      -0.82868401       0.42618703       0.49168190      -0.23201250
O        0.70731479       0.58054012      -0.92796504        0       0.03975079      -0.48060391       0.53369669    -111.13851173      -0.37214189      -0.70823382      -0.28816867      -0.25092250
C       -0.18480919      -0.38314587       2.27627182        0       0.60123118       0.95347832       0.78421094     -59.14690037      -0.57908517       1.05535926       1.25900425       0.02409064
C        0.11790480       0.31317315      -2.18905210        0       0.13771028       0.30945740       0.17925734     -58.97945030      -1.94283614       1.45787826      -1.67285780       0.03149461
H        0.50081283      -0.52887988       3.16355896        0      -0.04831405       0.14888672       0.01322573     -12.85327054      -0.82240538      -0.17216270      -1.20740440       0.08322839
H       -0.99130619       0.37122315       2.57026887        0      -0.05161592      -0.17982801      -0.04864356     -13.01440236       1.19572385      -0.26178667      -0.29329153       0.05368677
H       -0.79898220      -1.19689691       1.93909299        0       0.12090052      -0.09007247      -0.26743320     -12.80902009       0.14296195      -1.04899651       0.29163523       0.08470821
H        0.82173383       0.39293513      -3.04121518        0       0.10527144       0.37623806      -0.15265630     -13.01427372      -0.07666139      -0.15544510       0.93177213       0.06977610
H       -0.51975018      -0.63449883      -2.23208618        0      -0.10616535      -0.18048960      -0.27889875     -12.78262243       1.35194044       0.97978779       0.12088243       0.08750760
H       -0.68493521       1.15580308      -2.35394812        0      -0.17069010      -0.05323733      -0.09692794     -12.99739450       1.20601314      -1.21380439       0.07806111       0.04598396
12
Properties=species:S:1:pos:R:3:molID:I:1:momenta:R:3:energies:R:1:forces:R:3:charge:R:1 Nmols=1 Comp=DMC(1) energy=-590.050369678893 free_energy=-590.050369678893 dipole="0.08637199119826092 -0.008731062530898706 -0.027188929094307243" pbc="F F F"
C       -0.06129360      -0.07537226      -0.03563579        0       1.50794643      -0.97551303      -0.49762933     -59.23726442       0.87244585       1.13134732       1.68259448       0.48515401
O       -1.12280885      -0.53947464      -0.27723620        0      -1.01352440      -0.24334140       1.81147799    -112.39719114      -0.87037563      -0.92738236       0.64035206      -0.43012429
O        0.56840657       0.06751554       1.17632107        0      -0.63778710       1.04415578      -0.59699721    -111.34562520       0.15461291       0.10607666      -1.22586578      -0.28277689
O        0.68225737       0.54461012      -0.91627280        0      -1.33785913      -0.47505467       0.03075419    -111.04427977       0.12046307      -0.35566876      -1.63344778      -0.24188457
C       -0.14997711      -0.35898290       2.29619910        0      -0.03493179      -0.32292047      -0.00682709     -59.23024995       0.22461804       0.99802163       1.50074302       0.03591636
C        0.12461485       0.37086510      -2.22605509        0       0.48394484       1.48665150      -0.93929988     -59.04379026      -0.68875528       0.27557440      -1.07457976       0.03042488
H        0.54454808      -0.54604593       3.19006732        0       0.27495959      -0.04977808       0.04399980     -12.97166241      -0.75118718       0.72510032      -1.29798762       0.06558536
H       -0.93986990       0.42732684       2.51390931        0      -0.01005320      -0.04430071      -0.07252919     -13.03851821       0.73100006      -1.08772394       0.12886970       0.05690667
H       -0.53983430      -1.29773885       2.03179623        0       0.12452732      -0.32809422       0.47018743     -12.94258353      -1.19860679      -1.23575394       0.02079118       0.06941611
H        0.86081385       0.70769519      -2.94745440        0       0.44893367       0.31173459       0.01089231     -12.89427897       0.28590604       0.10965232       0.09004181       0.07655334
H       -0.14468671      -0.69420630      -2.50252112        0       0.53586184      -0.52072234      -0.36771483     -12.96193477       0.25757383       1.04203062       0.74017732       0.06873155
H       -0.79629850       1.01927571      -2.37913661        0      -0.34201808       0.11718308       0.11368581     -12.94299106       0.86230509      -0.78127427       0.42831137       0.06609745
12
Properties=species:S:1:pos:R:3:molID:I:1:momenta:R:3:energies:R:1:forces:R:3:charge:R:1 Nmols=1 Comp=DMC(1) energy=-589.77764819068 free_energy=-589.77764819068 dipole="0.16079592740960427 -0.04802397825733272 0.05731786072192193" pbc="F F F"
C       -0.04731091      -0.12767189      -0.04085022        0      -0.81662354      -0.34765459      -0.31750357     -59.46316748      -0.40889275       1.93011633       0.47370896       0.48848412
O       -1.14803284      -0.54538082      -0.18344399        0      -0.37878469      -0.10125553       1.83802863    -112.52513330      -0.94698708      -1.27390565      -0.30060576      -0.45371583
O        0.54564809       0.09884059       1.11501761        0      -0.78322475       0.01222001      -0.55532467    -111.29535859      -0.76351144      -1.40007881       1.54149621      -0.27626515
O        0.63888238       0.52745332      -0.95795036        0       0.12773712      -0.43258105      -1.41982756    -111.12906611       1.86036227      -0.11459499       0.91588920      -0.27815911
C       -0.16076618      -0.41020700       2.32209286        0       0.27225417      -0.35888489       0.27414528     -58.95127537       1.48325016       3.37370206       0.24421913       0.01698059
C        0.19286768       0.44276383      -2.27919715        0       1.39404315       0.79357520       0.12177753     -59.27277783       0.80641403      -0.31619417       0.80790446       0.02180704
H        0.71986632      -0.30429952       3.01090845        0       0.44424239       0.37206675       0.18728613     -12.69704821      -1.26611997      -0.34441108      -0.05040700       0.09154816
H       -1.02411666       0.27751131       2.59954624        0      -0.12419172      -0.01975409       0.17196160     -12.92331472       1.21208569      -0.28063453      -0.34084883       0.06903180
H       -0.61531104      -1.34240212       2.30582002        0      -0.22611965       0.12322521       0.02131449     -12.91053665      -0.09586477      -1.84435035      -0.67158263       0.08630355
H        0.91792618       1.00649686      -2.80245255        0      -0.00190055       0.71863705      -0.01351358     -12.81361944       0.17908785       0.91903885      -0.86580154       0.08563651
H        0.27884638      -0.56849332      -2.56557826        0       0.19198960      -0.49995613      -0.33308295     -12.99759272      -0.26959364      -1.33495235      -0.73441202       0.06319063
H       -0.79246694       0.76774445      -2.19487446        0      -0.09942155      -0.25963794       0.02473866     -12.79875777      -1.79023036       0.68626467      -1.01956019       0.08515768
12
Properties=species:S:1:pos:R:3:molID:I:1:momenta:R:3:energies:R:1:forces:R:3:charge:R:1 Nmols=1 Comp=DMC(1) energy=-589.7354279394928 free_energy=-589.7354279394928 dipole="0.19250767078462538 0.046888493387463905 0.05726877657587491" pbc="F F F"
C       -0.10337919      -0.10010648      -0.01708952        0      -0.50526411       0.70613844       0.34534264     -59.12859711      -1.98116398       0.10811519      -0.92397167       0.46867644
O       -1.21859003      -0.61425387      -0.09833045        0      -1.50542344      -1.06584580       0.81139286    -112.60675575       2.50230477       0.97722200      -0.71496152      -0.44483840
O        0.51737247       0.08217365       1.12024278        0       0.02295608       0.01877306      -0.05969707    -110.79337379       1.46207771       0.73847866       0.05729438      -0.22928824
O        0.66122489       0.52238465      -1.00434927        0      -0.17701926       0.05072097      -0.05727175    -111.23293101      -0.85381428      -1.33337519       2.58345551      -0.26515138
C       -0.08073915      -0.33817476       2.31103277        0       0.75448323       1.04137104      -0.50596513     -59.25268510      -0.38825211       1.40656665       1.34649341       0.03077126
C        0.25939982       0.43605073      -2.31349977        0       0.04439847      -1.00218522      -0.78699144     -59.23508089      -2.11159513       1.76933557       1.01962279       0.03125296
H        0.64919818      -0.28209404       3.13902475        0       0.24659516      -0.32412427       0.51862713     -12.88635723       0.07488751      -0.08342103      -0.63377257       0.07443995
H       -0.89848389       0.38115495       2.63367068        0      -0.06451756       0.30111161       0.12235957     -12.94908212       0.45698988      -0.95989675      -0.62306826       0.06315649
H       -0.39833741      -1.33743648       2.17558034        0       0.68151209       0.28971752      -0.18356789     -12.87140919      -0.80112602      -0.96040569       0.17334012       0.08019486
H        0.60909373       1.28588525      -2.78471730        0      -0.29871825       0.35944396      -0.01679782     -12.85782695       1.08442765       1.77352498      -1.07912100       0.07433545
H        0.48295470      -0.39426899      -2.80630287        0       0.71452578       0.07258430      -0.07921335     -12.91383875       2.06538591      -3.87479549      -1.83478806       0.06363490
H       -0.79611572       0.43456621      -2.47939402        0       0.08647180      -0.44770560      -0.10821775     -13.00749005      -1.51012190       0.43865110       0.62947687       0.05281571
12
Properties=species:S:1:pos:R:3:molID:I:1:momenta:R:3:energies:R:1:forces:R:3:charge:R:1 Nmols=1 Comp=DMC(1) energy=-589.7534082354822 free_energy=-589.7534082354822 dipole="0.14431549511086553 0.11712555171160267 -0.11872447452031404" pbc="F F F"
C       -0.20919629      -0.05394148      -0.01692971        0      -1.14862589       0.81343184      -0.23140137     -59.20964238       1.81897288       0.01842341       0.50187925       0.47893760
O       -1.24850768      -0.63962062      -0.06858441        0      -0.54044800       0.42349376       0.51087889    -112.42094103       0.37779710       0.55646307      -0.28991625      -0.41628011
O        0.56744624       0.13281547       1.10899045        0       1.04798295       1.09932629      -0.25715356    -111.27153751      -0.69802508       0.59531692      -0.72359664      -0.28532233
O        0.59052351       0.46097197      -0.97399798        0      -1.32206507      -1.46366001       0.88546847    -111.27880718      -1.02832357      -0.13375208      -0.40089519      -0.28273247
C        0.02713733      -0.26336004       2.36228569        0       1.52688391      -0.45858289       0.13288601     -59.17236468      -3.33432388      -1.94352222      -3.63100031       0.02578647
C        0.27263579       0.37775782      -2.41593780        0       0.40149523      -0.95183728      -1.32302697     -59.15706216      -0.28636438      -0.89605342       2.67008142       0.00583581
H        0.76456651      -0.30920114       3.02320559        0       0.67132166       0.29433464      -0.05707417     -12.80195080       3.02361173       0.19849092       2.70701030       0.08931285
H       -0.82068816       0.36366789       2.65380616        0      -0.13693967      -0.12317381       0.10287538     -13.06793061       0.12574484      -0.18350396      -0.01626428       0.06324570
H       -0.29779454      -1.34289949       2.13346062        0      -0.39926666       0.43007799       0.29383533     -12.93071404      -0.22953927       1.17506034       0.84458398       0.05796840
H        0.39884828       1.32960020      -2.79307931        0      -0.19190097      -0.20810259      -0.18397566     -12.82048699      -0.08363962       2.28183276      -0.64987214       0.08351385
H        1.11705801      -0.16080551      -2.78660480        0      -0.30500757       0.66567517       0.27201185     -12.73136639      -0.16744800      -1.15706211      -0.59293729       0.09220117
H       -0.76988432       0.06004167      -2.49115413        0       0.39657007      -0.52098311      -0.14532420     -12.89060448       0.48153727      -0.51169363      -0.41907285       0.08753308
12
Properties=species:S:1:pos:R:3:molID:I:1:momenta:R:3:energies:R:1:forces:R:3:charge:R:1 Nmols=1 Comp=DMC(1) energy=-589.1605095709866 free_energy=-589.1605095709866 dipole="0.2809632098306972 0.1249405314295322 -0.19428620341445008" pbc="F F F"
C       -0.23860205      -0.03809468      -0.00218948        0      -0.09231883      -0.17525398       1.05489341     -59.36439206      -1.19884883      -1.60268104       1.25368782       0.48376048
O       -1.30037782      -0.62743085      -0.03220533        0      -1.10598036      -0.05760893       0.77250504    -112.68394049       1.45494780       0.98355974       0.48643099      -0.45142756
O        0.59636990       0.19978643       1.07816291        0      -0.72645064       1.13360745      -1.08681984    -111.41482829      -2.05359872      -1.24549217      -0.30643416      -0.29247109
O        0.47071940       0.39786111      -0.96265617        0      -1.38210752       0.06231931      -0.99440678    -110.72346617       1.68726034       1.65560780      -3.32116377      -0.24611293
C        0.15185897      -0.28062380       2.35290761        0       1.17026787      -0.19888936      -0.18949931     -59.01524068      -4.67207450      -0.85266699      -1.85106755       0.02562819
C        0.30408948       0.37995919      -2.43191840        0       1.00552329      -0.61654221      -0.28811619     -58.92210948       1.49760259      -4.58914020       0.94578697       0.01932858
H        0.97262775      -0.11161120       2.87085193        0       0.01995536      -0.05601305       0.17058048     -12.63015461       3.63896222      -0.10687695       2.86016424       0.09764427
H       -0.62147158       0.41882760       2.74116961        0       0.54609198       0.30201977       0.07204271     -13.05214479       0.07277551      -0.29387922      -0.24790226       0.05174594
H       -0.37229041      -1.35678931       2.42803923        0       0.56714312      -0.14944850       0.23830682     -13.01353898       1.53208573       2.04825166      -0.63802667       0.05833968
H        0.17642392       1.33848865      -2.82955264        0      -0.27247102      -0.29014738       0.24117528     -12.78411085      -0.47269085       0.93302083      -0.31672800       0.10089046
H        1.30216264      -0.13041719      -2.83040327        0      -0.30170487       0.20643372       0.13445069     -12.73500496      -1.31368955       1.49093363       0.80726325       0.07172755
H       -0.37720855      -0.48178341      -2.71726386        0       0.57205162      -0.16047684      -0.12511232     -12.82157822      -0.17273174       1.57936290       0.32798915       0.08094643
12
Properties=species:S:1:pos:R:3:molID:I:1:momenta:R:3:energies:R:1:forces:R:3:charge:R:1 Nmols=1 Comp=DMC(1) energy=-588.938554760981 free_energy=-588.938554760981 dipole="0.28867653892739564 0.018176479421912993 0.23848131357648902" pbc="F F F"
C       -0.28065829      -0.07404984       0.06356362        0      -0.77850224      -0.76798857      -0.23491466     -59.22400565       0.49495724       0.10757311      -3.34389032       0.48767283
O       -1.31534745      -0.64430344       0.03705537        0       0.05467430      -0.48005526       1.39464624    -112.29677754      -0.64151410      -0.36915592       0.04572733      -0.41516282
O        0.51134222       0.22982384       1.01685962        0      -1.62687877       0.02814024      -0.19420278    -110.81699270       1.36643672       0.01855860       2.33868205      -0.23317990
O        0.41946907       0.42896660      -1.06588397        0      -0.55065482       0.52315537      -1.18544796    -111.09833515       0.27323584      -0.31398839       3.95448079      -0.30882031
C        0.26240126      -0.22917866       2.37608190        0       2.18343185       1.50822983       0.66954989     -59.07222131      -1.09047486      -1.67654855      -1.64785173       0.01388674
C        0.36961301       0.29027350      -2.39844872        0       0.19875622      -0.54196678       0.07865765     -59.09607277       0.87557902      -0.26164235      -2.64880246       0.06219827
H        1.15281737      -0.27034279       2.90450957        0       0.09419783       0.00371777      -0.61828007     -12.73562280       1.97252838       0.86725184       0.76576422       0.09105982
H       -0.44229288       0.46489840       2.79350849        0      -0.06857296      -0.22933834       0.24524782     -12.81048017      -0.52891911      -0.30153648       0.45814727       0.08895578
H        0.03405315      -1.35634855       2.40246895        0       0.08791246      -0.06156102      -0.32241721     -12.85903852      -0.81700906       1.56671576      -0.36875724       0.07116096
H       -0.12317034       1.17093594      -2.74500320        0       0.13193705      -0.42848473      -0.12698545     -12.92260180       0.06898234       1.35616739      -0.84269522       0.05206887
H        1.58272150       0.31778014      -2.78404742        0       0.20862113       0.48454644       0.19051141     -12.87600825      -3.26382149      -0.55234818       0.66190182       0.04435014
H       -0.33555170      -0.46108689      -2.84554157        0       0.06507794      -0.03839494       0.10363513     -13.13039810       1.29001908      -0.44104683       0.62729349       0.04580962
12
Properties=species:S:1:pos:R:3:molID:I:1:momenta:R:3:energies:R:1:forces:R:3:charge:R:1 Nmols=1 Comp=DMC(1) energy=-588.944861660387 free_energy=-588.944861660387 dipole="0.4385174193241353 0.08274950709849442 -0.25896227265568816" pbc="F F F"
C       -0.28720100      -0.12025168      -0.05311860        0       0.29610606      -0.41741337      -1.14063618     -59.36473348      -2.05564145      -0.49633658       2.97707631       0.48581941
O       -1.34854610      -0.68597271       0.11206382        0      -0.45548331      -0.48531066       0.50524524    -112.56638679       1.19217967       0.16479650      -1.41378503      -0.44971858
O        0.44815209       0.24672780       1.03256514        0      -0.59866117       1.11683530      -0.29387278    -111.03534364       0.94515498       1.79726583      -1.32655104      -0.30776249
O        0.37653779       0.42891803      -1.00794752        0      -0.83437761       0.39018608       1.91377974    -110.77739842       0.64088424       0.75151324      -2.09746494      -0.23888536
C        0.40710063      -0.16735066       2.37660385        0       1.80090138       0.39601859      -0.30925696     -59.21641789      -0.66276846      -2.98151961      -2.39801643       0.02403396
C        0.36376254       0.29819917      -2.44304457        0      -1.03721460       0.36065472      -0.56436059     -58.95556665       1.83681754       0.39463454      -0.85471112       0.03434524
H        1.42960534       0.04553982       2.61496454        0      -0.38481200       0.16299192      -0.09610974     -12.69535577       0.25981908      -0.66080742       0.95015264       0.09470545
H       -0.31456775       0.26350069       2.97974620        0       0.40824693       0.01540651       0.05735392     -12.99523476      -1.23061930       1.54065540       1.01915461       0.07024798
H       -0.00986200      -1.22197472       2.21085457        0      -0.05654455      -0.43703738       0.16922625     -12.82350480       1.24079804       0.47402815       1.17721236       0.06605750
H       -0.06849304       1.20330361      -3.02253719        0      -0.01939430      -0.35157080       0.09695011     -12.84002468      -0.12275911      -1.58777600       1.28383666       0.07612654
H        1.52866061       0.43524385      -2.72433475        0       0.52840444      -0.31970087      -0.31348568     -12.73320256      -2.21701126      -0.71346105       0.57673469       0.06866097
H        0.00501260      -0.72532183      -2.75128173        0       0.35282875      -0.43106003      -0.02483332     -12.94169220       0.17314603       1.31700700       0.10636129       0.07636939
12
Properties=species:S:1:pos:R:3:molID:I:1:momenta:R:3:energies:R:1:forces:R:3:charge:R:1 Nmols=1 Comp=DMC(1) energy=-589.2844640725439 free_energy=-589.2844640725439 dipole="0.3592775337388436 -0.10495791624509206 -0.16255033999397964" pbc="F F F"
C       -0.33374698      -0.13557967      -0.01930738        0      -0.81912048       0.34198693       1.41934206     -59.24896068       2.44260739       2.35210286       0.93295575       0.49220558
O       -1.35820148      -0.67961833       0.08898038        0       0.02721680       0.17891987      -0.70305904    -112.11227552      -1.47260851      -1.40351548      -0.61976181      -0.39331531
O        0.44383036       0.32473666       1.01265979        0       0.26303110       1.04851195      -0.47546837    -111.02748179       0.37550994      -1.31560056       0.74537765      -0.28281059
O        0.36242832       0.45572454      -0.99528036        0       0.17207188       0.36926248      -1.63657407    -111.09786850      -0.00945893      -0.49914087      -2.21197911      -0.27905681
C        0.47687692      -0.19929983       2.34086678        0       1.37020932       0.05855331       0.59352277     -59.11373189       0.24734631       2.25995135       1.50404370       0.03438313
C        0.37486396       0.22705543      -2.45551039        0      -0.64720484      -1.16353212       0.60623447     -58.99853287      -3.62448759       0.08325877       0.96046971       0.02339930
H        1.48222615      -0.01827079       2.79449593        0      -0.35108593      -0.26954276      -0.01144485     -12.92896946      -0.21351581      -0.10179771      -0.94852388       0.06294006
H       -0.14397622       0.47662254       2.96552799        0       0.19429853       0.05568360      -0.43030046     -12.96354937      -0.21840512      -0.24108134      -0.23626049       0.05439977
H        0.22294728      -1.18438735       2.65105734        0       0.12429813      -0.30939478       0.46208447     -13.08064012      -0.50403734      -0.99780649      -0.98497021       0.06400105
H       -0.37620438       0.95661233      -2.99457077        0      -0.17828200      -0.31604974       0.22016899     -12.91833020       1.49015070      -1.19033582       1.03141805       0.06746283
H        1.35674995       0.30360869      -2.76172312        0       0.47892183       0.39838728      -0.15109224     -12.75813825       1.88836643       0.83976694      -0.49091211       0.09369425
H        0.09366745      -0.80544528      -2.71201478        0      -0.63435433      -0.39278603       0.10658626     -13.03598544      -0.40146748       0.21419837       0.31814274       0.06269675
12
Properties=species:S:1:pos:R:3:molID:I:1:momenta:R:3:energies:R:1:forces:R:3:charge:R:1 Nmols=1 Comp=DMC(1) energy=-588.8518859123928 free_energy=-588.8518859123928 dipole="0.46399631376032174 -0.028174210258053875 0.25250839646983814" pbc="F F F"
C       -0.29797564      -0.04354341       0.08102875        0       0.03651098       1.29471923       0.48735310     -59.19604289      -2.98639994      -1.85658578      -3.66622174       0.47542596
O       -1.35195809      -0.69820386       0.04088631        0       0.97290923      -0.29712557      -0.05883360    -112.66710730       3.18449194       1.74500905       0.65442220      -0.44795444
O        0.48106338       0.37642945       0.99765172        0       0.97633390       0.86572578       0.40080666    -110.92724235       0.66110593      -0.56323330       3.02631868      -0.24097188
O        0.34619787       0.43734965      -1.07560890        0      -0.52948300      -0.66361885      -0.39369574    -111.09251159      -0.00894672       0.70916438       2.96651775      -0.30591512
C        0.50406177      -0.19086842       2.40183565        0       0.29841917       0.09243731       0.36524436     -58.88568333       2.09746262       3.25162527      -1.69042750       0.00785682
C        0.29741753       0.12933036      -2.41131765        0      -1.68210246      -0.98963034       0.06597734     -59.16437908      -6.18505913       1.00614410       0.40591023       0.04005975
H        1.66007357      -0.14554659       2.59655392        0      -0.37165193       0.07724991      -0.14861843     -12.58764176      -2.21299500       0.37392205       0.24305735       0.09689651
H       -0.19547211       0.42844277       2.98379762        0       0.22363866      -0.21120227       0.35178859     -12.74386888       0.80657537      -0.13052671       0.08808907       0.09638542
H        0.23699836      -1.17097842       2.43899325        0      -0.11213316       0.13757434      -0.67793138     -12.84236152      -0.97715329      -2.64541414      -0.23764994       0.09110668
H       -0.56997069       0.68154107      -2.98354114        0      -0.15536336      -0.08416148      -0.14991042     -13.11301328       1.16085380      -0.32279464       0.94753303       0.03013023
H        1.15903297       0.45385614      -2.72470451        0       0.06404256       0.10742038      -0.34877968     -12.62864411       4.62289724       1.37504037      -2.23084431       0.09376239
H        0.03859924      -0.84618258      -2.55964885        0       0.27887942      -0.32938844       0.10659920     -13.00338981      -0.16283281      -2.94235064      -0.50670481       0.06321769
12
Properties=species:S:1:pos:R:3:molID:I:1:momenta:R:3:energies:R:1:forces:R:3:charge:R:1 Nmols=1 Comp=DMC(1) energy=-588.9462690409257 free_energy=-588.9462690409257 dipole="0.23954790452646868 -0.030663870107781568 -0.16808762362616778" pbc="F F F"
C       -0.32757436       0.00900804       0.03146330        0       0.14708594       0.80443289      -0.84574805     -59.15440414       3.42819127       0.68954953       0.04270293       0.48806925
O       -1.25174486      -0.70103475       0.06361201        0       1.21581684      -0.40587180       1.02174316    -112.10566139      -1.87678829      -1.06325289       0.78259877      -0.39647065
O        0.53705383       0.42592900       1.06678989        0       0.90358338       0.77106127       0.89577752    -111.38022720      -1.39182722       0.96139872      -0.79697540      -0.29970206
O        0.32359712       0.42119587      -1.05277713        0       0.72062053       0.26624463       0.73095700    -110.98187799       0.67916421       1.04687047      -0.58540865      -0.27323932
C        0.47647100      -0.16354191       2.35705748        0      -0.54198693      -0.64445673      -0.94630335     -59.00371943       2.34430226       0.05274948       0.85470220       0.03828098
C        0.17899434       0.04914332      -2.45205792        0      -0.64492670      -1.16296853      -1.03185463     -59.03188203      -3.39418038       1.97077624       1.94676394       0.01737998
H        1.65742900      -0.25242920       2.68285299        0      -0.32461513      -0.16076044       0.07820717     -12.88920546      -2.71955783       0.03321165      -0.68455250       0.05461792
H       -0.06097514       0.28730227       3.26075747        0      -0.12838782      -0.00104512      -0.14756285     -13.09733827       0.41911781       0.05787203      -1.76155016       0.05635280
H        0.06420239      -1.09877337       2.08605445        0      -0.15221834       0.39385732       0.05905586     -12.89337356      -0.36342217      -1.50861277       0.86989070       0.07299004
H       -0.72021564       0.54137193      -2.95029241        0      -0.57186074      -0.15716986      -0.15706994     -12.95468344       0.73303829      -1.01930276       0.83412558       0.06876570
H        0.99952611       0.37460440      -2.93158106        0      -0.72978328       0.02188299       0.16792122     -12.66285547       3.03420482       2.11257319      -1.36734273       0.09031558
H        0.31808213      -0.95109245      -2.54538195        0       0.10667224       0.27479338       0.17487690     -12.79104064      -0.89224276      -3.33383289      -0.13495468       0.08263977
12
Properties=species:S:1:pos:R:3:molID:I:1:momenta:R:3:energies:R:1:forces:R:3:charge:R:1 Nmols=1 Comp=DMC(1) energy=-589.3065367507928 free_energy=-589.3065367507928 dipole="0.1874070483910577 -0.08009459994219906 -0.3116060261763705" pbc="F F F"
C       -0.23348691       0.04019334       0.00229901        0       1.53332848      -0.58006357       0.41359495     -59.04804880      -0.08829610      -1.32964520       1.66260253       0.46953421
O       -1.19409487      -0.70523098       0.16002471        0       1.37586714       0.14746147       2.10631428    -112.52896733       2.07349405       1.77030780      -0.63179118      -0.42878316
O        0.58750566       0.49818301       1.08687591        0       0.81765747       0.88203579      -0.76846692    -111.44531703      -1.41901105      -1.95641647      -1.69910743      -0.29095816
O        0.35712331       0.46686261      -1.08975413        0       0.28264734       1.20585243      -2.38065741    -111.04858900      -0.33742080      -0.15556314      -0.92169813      -0.24819144
C        0.38051211      -0.23559002       2.28505729        0      -2.30900547      -1.24934318      -0.20567900     -58.93510899       1.23659470       1.37316063       2.41739780       0.04387415
C        0.09448659      -0.01956861      -2.46307755        0      -0.38717425      -0.36229301       0.14581060     -59.04828280      -0.98625702       1.26802452       1.24425092       0.01327285
H        1.48847915      -0.47869667       2.83636752        0      -0.04612041      -0.11555224       0.01413275     -12.94533196      -2.79296286       0.96401759      -1.45513601       0.04787609
H       -0.27850024       0.48571504       2.88807591        0      -0.23592039       0.41206828      -0.27149641     -12.92869331       1.18338981      -1.02668014       0.01419973       0.05759520
H       -0.16530158      -1.17367618       2.28621842        0       0.21035288       0.25910632       0.22741306     -13.05270211       0.10991814      -0.03682202      -0.85909856       0.07000791
H       -0.98379058       0.06577309      -2.76282974        0      -0.49113243      -0.41527884       0.30789409     -12.85405556       0.79499195       1.02627805       0.20034847       0.07654200
H        0.84767808       0.58654947      -3.01077437        0      -0.68721806      -0.42879503       0.39035614     -12.62792881      -0.88630262      -0.78484314      -0.00451861       0.10625567
H        0.15197886      -1.07562561      -2.49916294        0      -0.06328230       0.24480161       0.02078386     -12.84351106       1.11186179      -1.11181850       0.03255046       0.08297467
12
Properties=species:S:1:pos:R:3:molID:I:1:momenta:R:3:energies:R:1:forces:R:3:charge:R:1 Nmols=1 Comp=DMC(1) energy=-589.0228693929872 free_energy=-589.0228693929872 dipole="0.2186546660561465 -0.13673627360284948 0.11697115675690165" pbc="F F F"
C       -0.10528861      -0.01157878       0.06232741        0       2.23867075       0.00202304       0.33042325     -59.14455048      -1.31014744       0.69967335      -2.91804612       0.48076628
O       -1.09086702      -0.66512200       0.27149025        0       2.00469569       0.55994458       1.21249170    -112.42616175       0.05743595      -0.40675637      -1.77639111      -0.43800604
O        0.58897450       0.47477605       1.00672002        0      -0.36127858      -1.04152165      -0.85777017    -111.02194790       1.44761579      -0.85055344       2.59512300      -0.24619939
O        0.36950501       0.52058385      -1.19533276        0      -0.00437099       0.03788869      -0.66066846    -111.56914342      -0.34564437      -1.35890055       2.18091219      -0.30444634
C        0.26519542      -0.24070040       2.31079509        0      -0.94198096       0.47753397      -0.48444440     -58.66212472       1.74838685       0.35105648      -0.38591741       0.00948822
C       -0.02110624      -0.06799881      -2.40583463        0      -1.32159350      -0.34493005       0.18327221     -59.03877136       0.91858296       1.56211348      -2.56076864       0.05315365
H        1.35601691      -0.40518989       2.79514449        0       0.42777678       0.05553148       0.18009026     -12.74567076      -2.51564886       0.30214879      -0.88478324       0.08168692
H       -0.30756950       0.57522998       2.80987487        0      -0.58223318       0.03615309       0.30779924     -12.66559661       0.29042342      -1.24577744       0.17575270       0.10130750
H       -0.30479191      -1.26006355       2.09801416        0      -0.29288369       0.53060407      -0.30381097     -12.61127525       1.16260348       2.28477638       0.55897767       0.10766198
H       -1.08973259       0.08964463      -2.57754099        0      -0.21145120      -0.04931263       0.00923623     -13.06438062       0.03087544      -0.52865838       0.09834208       0.05902348
H        0.50601577       0.63603185      -3.31507798        0      -0.89165871      -0.45556671       0.13262013     -12.90102051      -1.04750385      -1.66514385       2.39142321       0.04458520
H        0.33635340      -1.11232221      -2.59808542        0      -0.06369242       0.19165212      -0.04923901     -13.17222600      -0.43697937       0.85602157       0.52537568       0.05097854
12
Properties=species:S:1:pos:R:3:molID:I:1:momenta:R:3:energies:R:1:forces:R:3:charge:R:1 Nmols=1 Comp=DMC(1) energy=-589.0128593790402 free_energy=-589.0128593790402 dipole="0.11493168711978088 -0.11236953836666772 -0.19797383807173483" pbc="F F F"
C       -0.02767116       0.01047791      -0.02417301        0       0.21000824       0.57856446      -1.75955704     -59.25111447      -0.42838650       1.08892546       1.28148124       0.48494176
O       -0.97925690      -0.64253269       0.27733532        0       0.17996510      -0.37379451      -1.04388419    -112.29216832      -1.82917693      -1.38040357      -2.93832201      -0.44962618
O        0.65267321       0.45857127       1.04293682        0       2.19907725       0.73462887       1.47866156    -111.08986937       0.83324399       0.88140421       0.58912121      -0.25931224
O        0.36702746       0.50572300      -1.19580576        0       0.43574267      -0.56837845       0.73828196    -111.28544809       0.28948493      -0.24335459       0.20284324      -0.25285720
C        0.17665170      -0.13081346       2.26110747        0      -1.42096900       1.35763876      -1.16092687     -58.89760502       0.17750506      -2.69759333      -0.19935613       0.01747460
C       -0.14728231      -0.12582463      -2.36663330        0      -2.00988472      -1.11124245      -0.06846725     -58.86661020       0.66683885      -0.83353729      -1.63385866       0.04025076
H        1.00015448      -0.44464990       2.87590498        0       0.28586893      -0.30094617       0.43853186     -13.01342104       1.04176700      -0.05914267      -0.14975434       0.06019965
H       -0.45122739       0.32849256       2.99692223        0      -0.17643699       0.21449114       0.10202547     -12.99535044      -0.73178067       1.30065465      -0.67275200       0.06942972
H       -0.36674478      -1.10314889       1.91706006        0       0.22090446      -0.16816956       0.11705894     -12.67401647       0.81053455       1.35429661       1.07012361       0.08691000
H       -1.23699347      -0.31289092      -2.24458828        0      -0.11663010      -0.52289470       0.47641342     -12.90727447       0.52878888       0.62643764      -0.44515913       0.07637613
H        0.19171233       0.50601719      -3.42314931        0       0.21692688       0.06931528       0.40351094     -12.73255755      -1.03636028      -1.57305102       3.19565094       0.07280239
H        0.29643932      -1.19455859      -2.40434886        0      -0.02457272       0.09078734       0.27835117     -13.00742394      -0.32245887       1.53536390      -0.30001796       0.05341062
12
Properties=species:S:1:pos:R:3:molID:I:1:momenta:R:3:energies:R:1:forces:R:3:charge:R:1 Nmols=1 Comp=DMC(1) energy=-588.9957565460975 free_energy=-588.9957565460975 dipole="-0.010949088643051916 -0.12371601714761302 -0.24210611871908272" pbc="F F F"
C       -0.02694077       0.03175684      -0.03077149        0      -0.35023859       0.32606908       1.82816684     -59.07981605       1.59886843       1.50481125       2.20597546       0.47740674
O       -0.96896315      -0.66731336       0.13093116        0       0.44760338      -0.85594248      -3.16806672    -112.31220104      -0.78684429      -0.79729691       0.23531736      -0.42549493
O        0.76089903       0.51185650       1.10612888        0       1.16676553       0.47902012      -0.21072483    -111.83790272      -2.39696030      -1.99341515      -2.84104469      -0.33114576
O        0.37823393       0.47674544      -1.17784652        0      -0.03403268      -0.45496513      -0.04698046    -111.30152467      -0.20924652      -0.44447066      -0.88635274      -0.26403550
C        0.16553164      -0.07894777       2.28598260        0       0.29058451       0.58255299       0.83457849     -59.09583025      -2.77210684       1.29731098      -2.82904953       0.01567091
C       -0.28562295      -0.26615483      -2.31155843        0      -0.72376603      -1.25541115       1.82702303     -58.65113849       4.15834593       3.28600498      -1.04836222       0.01220490
H        0.96856228      -0.15993115       2.85085510        0       0.11533515       0.61797668       0.17199229     -12.76522196       3.18046517      -0.59932405       3.20813579       0.08947891
H       -0.56330287       0.66870141       2.59011008        0      -0.00512590       0.26693875      -0.86558915     -13.03090088      -0.11484958      -0.04600333       0.65266628       0.05968256
H       -0.39039858      -1.00918386       2.08358440        0      -0.11709436       0.03855162       0.11096033     -12.96751558       0.55388617       0.24787908       0.00556467       0.07661513
H       -1.29488661      -0.42897228      -2.07796706        0      -0.43981420       0.22968236      -0.05754998     -12.71800679      -1.04263957      -0.14582847      -0.09691301       0.11137482
H       -0.00155099       0.63534133      -3.19632109        0      -0.51978078       0.09728634      -0.27422474     -12.45619265      -1.16242054      -2.91320156       1.96386958       0.08844496
H        0.38202704      -1.16273722      -2.37409864        0       0.16956398      -0.07175920      -0.14958510     -12.77950545      -1.00649805       0.60353386      -0.56980695       0.08979726
12
Properties=species:S:1:pos:R:3:molID:I:1:momenta:R:3:energies:R:1:forces:R:3:charge:R:1 Nmols=1 Comp=DMC(1) energy=-589.21343400061 free_energy=-589.21343400061 dipole="0.04798150458047928 0.0336893171703066 0.4170070979840118" pbc="F F F"
C       -0.01262395       0.06934171       0.10157145        0      -0.47750476      -0.16293884       0.26311563     -59.14590502      -1.88896419      -2.15687502      -5.60937827       0.47855934
O       -0.95987250      -0.69987404       0.01331439        0       0.79838370      -0.18344594      -0.65746163    -112.54595379       0.66010086       0.65421095       3.33658779      -0.46612800
O        0.77000694       0.47319040       1.00170126        0      -0.37613753      -1.63469975      -1.66284332    -111.05363448       0.28466488      -0.27462570       3.03610582      -0.22108881
O        0.38418011       0.44268062      -1.20594170        0       0.03565478      -0.78819656      -0.68547297    -111.36136736       0.42222552      -0.10637022       0.46399157      -0.29999503
C        0.21550970       0.06322425       2.34108243        0       0.83035006       2.87084065       0.78113215     -58.83131693      -2.11813686       1.26886984      -2.44537943       0.00864944
C       -0.32466922      -0.32281225      -2.19094580        0       0.01739892      -0.15235330       1.05289697     -58.95797591       1.61704912       1.60832527      -3.19943978       0.03801900
H        0.81913736       0.20859901       3.17272290        0      -0.80990384       0.21077891      -0.07518533     -12.78312112       1.61382137       0.06080288       0.74143744       0.09979821
H       -0.62287738       0.79479260       2.42374258        0       0.06708012       0.03762952       0.42597754     -12.80419390       0.17465210      -0.51755753       0.38917630       0.07571184
H       -0.23621369      -0.92710529       2.24873619        0       0.27147648      -0.01178688       0.27291199     -12.76664152       0.37096638       0.01591720       0.06987991       0.09676723
H       -1.32394540      -0.42137790      -1.92923012        0      -0.00673430      -0.21545765       0.61359090     -12.79161530      -1.66159277      -0.39826006       0.46928137       0.08988767
H       -0.35880283       0.24983325      -3.22903752        0      -0.00270806       0.42043711      -0.49848309     -13.06238773       0.50605104      -0.47262958       2.02533671       0.04394928
H        0.13411911      -1.28724009      -2.46598470        0      -0.34735556      -0.39080727       0.16982117     -13.10932094       0.01916256       0.31819196       0.72240056       0.05586985
12
Properties=species:S:1:pos:R:3:molID:I:1:momenta:R:3:energies:R:1:forces:R:3:charge:R:1 Nmols=1 Comp=DMC(1) energy=-589.4517867610848 free_energy=-589.4517867610848 dipole="-0.0056121573762906544 0.11206366246517374 0.12302573397808937" pbc="F F F"
C       -0.02897673       0.00328912      -0.05387934        0       0.70984711      -0.47620516      -2.69284742     -59.22365030       1.08655042      -0.27055930       2.01239276       0.48776892
O       -0.92460401      -0.77172414       0.06185835        0      -0.18483153      -2.42621385       1.63486102    -112.41670160      -1.19170243      -0.66665505       1.25043156      -0.45370844
O        0.71684735       0.41090299       0.98881020        0      -1.25450605      -0.51446165       0.53395211    -111.18880860       0.14897495       1.36641271       0.47028273      -0.26379402
O        0.41726121       0.39542637      -1.22818196        0       1.39846940      -0.01838502       0.29643697    -111.11445924       0.85226437       0.80192011       0.96620207      -0.24141516
C        0.21633684       0.29898206       2.33390574        0      -0.27482429       2.50681507       0.94891157     -58.95791901       1.01257880      -1.08983031       1.68688901       0.03622585
C       -0.34598127      -0.29029314      -2.14188217        0      -1.10680000      -0.10520482       1.24680837     -59.06144477       0.56316153      -0.69756004      -2.92300418       0.02552651
H        1.00801190       0.46728745       3.21282699        0       0.34806981       0.19934989      -0.96762318     -12.87260514      -1.01710299       0.09181438      -2.45325729       0.06696628
H       -0.67016569       0.84369912       2.62265968        0      -0.01627668       0.12105921      -0.15393531     -13.01269927      -0.06204596       0.91866024      -0.65710156       0.06507818
H       -0.10436116      -0.72051695       2.51578062        0       0.13357493       0.20401876       0.32001447     -12.91552410       0.04820670      -0.68331704      -0.23489297       0.06596627
H       -1.30600519      -0.41031795      -1.72802795        0       0.00687192       0.33833109      -0.50726069     -12.66079588      -1.85898625       0.57373944      -0.43601388       0.09124076
H       -0.27069546       0.22562772      -3.13592265        0       0.18979111       0.13386293      -0.88249065     -13.02237214      -0.12274630      -0.63247748       0.92219331       0.06598415
H       -0.04841938      -1.35593207      -2.16394024        0       0.05061428       0.03703355       0.22317275     -13.00480670       0.54084716       0.28785234      -0.60412156       0.05416069
12
Properties=species:S:1:pos:R:3:molID:I:1:momenta:R:3:energies:R:1:forces:R:3:charge:R:1 Nmols=1 Comp=DMC(1) energy=-588.9397312068143 free_energy=-588.9397312068143 dipole="0.04609130123634045 0.15644113564726742 -0.04686954115434011" pbc="F F F"
C       -0.02895553      -0.09097698      -0.07569211        0      -0.70129229      -1.44463116       2.20360479     -59.18626879       0.10346624       0.05433338       2.80858875       0.47979263
O       -0.93962448      -0.85199184       0.14529588        0       0.57654130      -0.11004549       1.18279955    -112.47128190       0.20169018       0.37979921      -1.07233694      -0.44560279
O        0.65202952       0.40169802       0.97356187        0      -1.12640057       0.21704117      -0.63604606    -111.24317237       0.19533709       0.45676205      -2.12469725      -0.30694901
O        0.49195033       0.37930199      -1.21594547        0      -0.16715267      -0.83249695      -0.23558444    -111.46094151      -2.88981744      -1.22853845       0.49357630      -0.26621676
C        0.22763745       0.43223584       2.34243112        0       0.70081113       1.13879040      -0.89965176     -59.10982880       2.29113862       1.50640749      -1.20099084       0.01532951
C       -0.41175245      -0.27564590      -2.15814785        0      -0.52581827       0.24996865      -0.52408544     -58.79788883       2.11267430      -0.61412270      -0.91113393       0.02260442
H        1.27904109       0.87049853       2.47859588        0      -0.32247392       0.50346167      -0.09923864     -12.20259675      -1.59290872      -0.16470174       2.19043306       0.11317343
H       -0.60769930       1.16775662       2.45486157        0       0.34273239       0.10568408      -0.09372750     -12.98906461       0.63474774      -0.95918044       0.20359135       0.07312436
H        0.13787824      -0.56613309       2.72857283        0       0.29247841       0.24089660       0.09333901     -12.93561006      -0.51064882      -0.10943991       0.29975933       0.08273039
H       -1.47784260      -0.05178439      -2.16081536        0       0.75265866       0.07806986      -0.31856969     -12.91956381       0.33682613      -0.26710672       0.84383264       0.08430578
H       -0.03467096      -0.02106967      -3.09678029        0       0.57786279       0.11172014      -0.65870762     -12.84631859       0.50823618       1.19126382      -1.91320700       0.07187210
H       -0.03330998      -1.31220445      -2.13081467        0      -0.39994697      -0.25845896      -0.01413220     -12.77719519      -1.39074150      -0.24547599       0.38258452       0.07583595
12
Properties=species:S:1:pos:R:3:molID:I:1:momenta:R:3:energies:R:1:forces:R:3:charge:R:1 Nmols=1 Comp=DMC(1) energy=-589.137889864338 free_energy=-589.137889864338 dipole="0.10493589081547053 0.16262479896485046 0.19395405990593206" pbc="F F F"
C       -0.05052777      -0.14871894       0.07551985        0       0.02260941      -0.07965691       0.32032113     -59.24995502      -0.80536456      -0.11876988      -3.38775624       0.48317648
O       -0.96111985      -0.90091824       0.21825562        0      -1.50819893      -1.59349517       1.44523062    -112.43567584      -0.26194791      -0.32494582       0.11126914      -0.43122500
O        0.65593121       0.46723284       0.91724182        0       1.22558907       1.94240567       0.24389008    -110.42863685       2.59589249       1.45125379       1.31029735      -0.19397173
O        0.39541169       0.30026625      -1.19229904        0      -2.02243517      -1.73185791       0.56939343    -111.53561725      -0.27414484      -1.44753726       0.91631909      -0.30521555
C        0.33857329       0.53838579       2.25244162        0       1.47468131       1.97244668      -0.14767775     -59.07149131      -1.61862558       1.94998595       3.41963320       0.04290124
C       -0.28357650      -0.28636522      -2.29958595        0       0.73071797      -0.37756380      -1.04799705     -58.90685403      -5.91011712      -0.99793144       5.30606777       0.02975352
H        1.06166293       1.21311967       2.91527030        0      -0.08717895      -0.14888837       0.02736202     -12.83121075      -0.90030646      -1.35719575      -1.90072221       0.06930970
H       -0.68164417       1.09677759       2.36804598        0      -0.27962805      -0.32707592      -0.20015220     -12.96137586       1.30355211      -0.81051262      -0.20721211       0.04886294
H        0.19472732      -0.39690547       2.82971927        0      -0.08666946       0.24396356      -0.22828225     -12.96738316       0.30411577       0.09059619      -0.76993540       0.06673166
H       -1.43506320       0.11529914      -2.15209418        0       0.61293600      -0.01617003      -0.14785718     -12.96404794       2.05978496       0.02037998      -0.92176849       0.02847948
H        0.09619351       0.00355699      -3.15928045        0       0.17942054      -0.00247856      -0.56262100     -12.85091424       1.78171865       0.94568442      -3.52584581       0.09363255
H       -0.65080999      -1.34794791      -2.12802848        0      -0.26184374       0.11837075      -0.27160985     -12.93472761       1.72544249       0.59899245      -0.35034629       0.06756472
12
Properties=species:S:1:pos:R:3:molID:I:1:momenta:R:3:energies:R:1:forces:R:3:charge:R:1 Nmols=1 Comp=DMC(1) energy=-588.9195088014902 free_energy=-588.9195088014902 dipole="0.11236678480829548 0.1469557891910626 -0.18080169156437628" pbc="F F F"
C       -0.06338652      -0.20051611       0.05482921        0      -0.39397633      -1.19030011      -0.65627687     -59.12499262      -0.59297028       0.64867529       0.65367582       0.47490874
O       -0.99865062      -0.92813214       0.28518268        0       0.26838274       0.16875856       0.90808352    -112.38163211       1.20072501       0.68318644       0.85937879      -0.42166316
O        0.75304554       0.57443455       0.92609120        0       1.25645990       1.43411064      -0.26816167    -111.54505908      -1.41732057      -1.01932436      -1.32600571      -0.30007806
O        0.29811386       0.14666600      -1.15263399        0      -0.92004944      -2.48463678       0.10142520    -110.69655803       1.95213418       0.84847007      -0.77454578      -0.23230322
C        0.31257279       0.68735242       2.27514268        0      -0.93465160       1.02865911       0.50246837     -59.04456296       0.31830127      -1.60803886       0.63298265       0.03905156
C       -0.26442946      -0.28739240      -2.36760491        0      -0.28938584       0.38055700      -0.74985617     -58.91134002      -4.30736677      -0.79801195       2.20294733       0.03378829
H        1.08659470       1.41047531       2.84447175        0      -0.20938773       0.46546379      -0.10456664     -12.82282331      -2.20637895      -1.36603401      -1.36723836       0.07826354
H       -0.82833738       0.86407380       2.23548962        0      -0.21001552       0.21069330       0.22304725     -12.97901822       1.84527648       0.39335773       0.63650928       0.06505401
H        0.44570866      -0.39918487       2.68175599        0       0.47419473       0.19391065      -0.07340537     -13.00690484      -0.25457039       1.73174952       0.03953032       0.04931178
H       -1.24716435       0.45488246      -2.53396816        0       0.08918624      -0.01241352      -0.35682543     -12.77553839       1.66611802      -2.48402449       0.36535201       0.05836893
H        0.28748348      -0.13521596      -3.18736869        0       0.61131761       0.03125874       0.50917478     -12.75906852       2.76218138       1.28964973      -2.46378746       0.08829491
H       -0.36001582      -1.44295852      -2.40357762        0       0.25792523      -0.22606138      -0.03510696     -12.87201071      -0.96612939       1.68034487       0.54120110       0.06700268
12
Properties=species:S:1:pos:R:3:molID:I:1:momenta:R:3:energies:R:1:forces:R:3:charge:R:1 Nmols=1 Comp=DMC(1) energy=-587.9703430726914 free_energy=-587.9703430726914 dipole="-0.0019669271488749226 0.1898631912348558 -0.2101042072860018" pbc="F F F"
C       -0.06798621      -0.24309511       0.04087569        0       0.44529120       0.17365747       0.65738926     -59.05477136       0.18325693       1.67369342       1.59618992       0.47286646
O       -0.99250370      -0.91861382       0.36837854        0       0.20915831       0.05142124       1.87920777    -112.22392791       0.41174045       0.06291718       0.92592834      -0.40551325
O        0.81391891       0.61513367       0.86906068        0       0.31821813      -0.28939718      -0.92321692    -111.82236791      -3.63988810      -2.47071814       1.55163485      -0.32566210
O        0.27669623       0.02212476      -1.16921115        0       0.61807210      -1.26368894      -0.53198733    -110.62068095       0.91365543       1.73383090       1.08758148      -0.24015665
C        0.28493854       0.75331241       2.28534124        0      -0.11567900       1.20435558      -0.53559354     -58.64234687      -0.17182940       2.24080299       0.29288608       0.03634655
C       -0.26734165      -0.29786214      -2.41583005        0       0.93067226      -0.30674294      -0.45201962     -58.92661301      -5.11768590      -2.42820836       0.65680283       0.01299598
H        0.62624530       1.82799012       2.57912088        0      -0.26124885       0.58470944      -0.32448489     -12.87576708       0.32297692      -1.82062012      -0.38197411       0.06470745
H       -0.86732847       1.00626025       2.40444392        0      -0.38724880      -0.20596958      -0.00963492     -13.01048287       1.87563882      -1.49730349      -0.87027418       0.05555884
H        0.63853462      -0.00690246       3.10568652        0      -0.18404452       0.39213716       0.48864127     -13.02588315      -0.57865612       1.16358108      -2.07830275       0.06513260
H       -1.23695618       0.25485457      -2.89000757        0      -0.28203394       0.12260513      -0.07046305     -12.94095679       1.78885809      -0.56053816       1.78260546       0.05300592
H        0.57243617       0.08664631      -2.78438106        0      -0.53749053       0.02616908       0.02342789     -11.97314056       2.83922523       0.25952643      -3.92401274       0.14002606
H       -0.63380630      -1.41107633      -2.37257401        0      -0.75366635      -0.48925645      -0.20126592     -12.85340462       1.17270764       1.64303627      -0.63906520       0.07069215
12
Properties=species:S:1:pos:R:3:molID:I:1:momenta:R:3:energies:R:1:forces:R:3:charge:R:1 Nmols=1 Comp=DMC(1) energy=-589.3002267113709 free_energy=-589.3002267113709 dipole="0.032567520578109244 0.2900292202582306 -0.1603783674941353" pbc="F F F"
C       -0.04580642      -0.15922722       0.10808845        0      -0.23151592       1.24455413       0.70259487     -59.35382113      -1.17369232      -2.01459410      -1.58328785       0.48701981
O       -0.93410450      -0.87868363       0.51273322        0       1.38886258       1.18091837       2.80664713    -112.61639473       0.33812936       0.76312333      -0.60911566      -0.45485636
O        0.76361530       0.52991014       0.85578166        0      -0.97479339      -2.25024462      -0.08864334    -111.11378243       0.95049053       0.77499308       1.06331188      -0.25747694
O        0.33529377      -0.01574000      -1.19166092        0       1.38138797      -0.00961993      -0.39125388    -111.17143320       1.30421057      -0.03853784       0.01781309      -0.29108773
C        0.25272840       0.87367226       2.18336741        0      -0.23582665       0.72390861      -2.32176395     -58.99214808      -0.47276038      -0.42272476      -0.53570946       0.01283558
C       -0.32583791      -0.36416097      -2.43991635        0      -0.63752543      -0.23092935      -0.48287399     -58.99523908      -0.30497039       2.56961638       1.21773166       0.02697258
H        0.46657890       1.98135638       2.21567751        0      -0.15927936       0.41419487      -0.23867270     -12.80404873      -0.79920326      -1.15105138       0.32758554       0.08396778
H       -0.81717854       0.46406727       2.06297366        0      -0.14323808      -0.36045563      -0.35554711     -12.66311459       1.08742116       1.23228697       1.00225766       0.09604498
H        0.73752139       0.35821332       3.07433771        0       0.60727028       0.17028742      -0.12023740     -12.96509396      -0.24271966       0.39803730      -1.44405744       0.07227095
H       -1.16004620       0.34964173      -2.38022395        0      -0.15737787       0.67712041       0.54662978     -12.85918419      -0.12935395      -0.35254359      -0.95097361       0.07185510
H        0.26833385      -0.27960462      -3.35362032        0      -0.95933564      -0.65788828       0.20923779     -12.84815829       0.72187004       1.15316647       0.66456450       0.07899657
H       -0.64066356      -1.32052017      -2.59097044        0       0.12137151      -0.90184599      -0.26611720     -12.91780830      -1.27942171      -2.91177186       0.82987969       0.07345767
12
Properties=species:S:1:pos:R:3:molID:I:1:momenta:R:3:energies:R:1:forces:R:3:charge:R:1 Nmols=1 Comp=DMC(1) energy=-588.9032462600901 free_energy=-588.9032462600901 dipole="-0.13983963424189555 0.32248808558992964 -0.2999602009252252" pbc="F F F"
C       -0.08930867      -0.13198745       0.06279485        0      -0.15001679      -0.71174353      -1.35658094     -59.04598438       1.67676861      -1.63936519      -0.41622692       0.47704181
O       -0.89155357      -0.83824485       0.60706501        0       0.00501839       0.47982936       0.31189218    -112.12862872      -1.69091979      -0.30342120      -2.40550804      -0.41825597
O        0.75343891       0.45174974       0.89571576        0       1.01394537      -0.53395423       0.07429913    -110.57751887       1.86202346       1.34308250      -3.16908864      -0.23898499
O        0.45118278      -0.03822605      -1.22355391        0       1.64518947      -0.07365635      -0.63932713    -111.60422775      -2.41897696      -0.34251238       0.54028377      -0.29999945
C        0.23997290       0.91946903       2.03807168        0      -0.54019669       0.42154885      -1.20475191     -59.29790952      -1.56373247       1.10011857       2.63966686       0.03971806
C       -0.44113312      -0.39586893      -2.37858109        0      -0.44247176      -0.74720234       1.06623301     -58.84392812       4.53342884       5.08206681      -0.76557632       0.01594786
H        0.04225656       2.02584412       2.02189949        0      -0.55737846       0.37375028      -0.23475220     -13.10551919       0.53314070      -0.57541682      -0.11142030       0.04305290
H       -0.76832439       0.47964623       2.29226017        0      -0.26662955      -0.11628646       0.60126485     -12.98556152       1.04081110      -0.02569346      -0.00421657       0.06106848
H        1.02508910       0.64744245       2.72625873        0       0.34778460       0.12956068       0.29745811     -12.74512028      -0.24212263       0.31671258       1.08320562       0.08066362
H       -1.21265280       0.30305419      -2.41789177        0      -0.62796744      -0.10301186      -0.32869963     -12.96817429      -1.51762892       1.02271985       0.21410460       0.07209174
H        0.15439054      -0.17749377      -3.37584242        0       0.03376228       0.37612455       0.78587625     -12.82630120      -0.60121410      -0.67991143       2.04651833       0.07446392
H       -0.72046742      -1.31677287      -2.28623553        0      -0.46103942       0.50504105       0.62708827     -12.77437244      -1.61157784      -5.29837982       0.34825761       0.09319202
12
Properties=species:S:1:pos:R:3:molID:I:1:momenta:R:3:energies:R:1:forces:R:3:charge:R:1 Nmols=1 Comp=DMC(1) energy=-589.1587263296279 free_energy=-589.1587263296279 dipole="-0.14992357370724932 0.2665096870434436 -0.27304413037628944" pbc="F F F"
C       -0.01950543      -0.22987310      -0.00436024        0       1.42165365      -1.03089812       0.57477099     -59.10315120       0.56742074       0.46840227       3.57473853       0.47483901
O       -0.94670190      -0.80758549       0.53625051        0      -1.32772859       0.33971209      -2.42977896    -112.46591391       0.78242756       0.53048281      -2.47825432      -0.43191680
O        0.85389436       0.45478845       0.83964558        0       1.33534325       0.22100910      -1.44484861    -111.45128561      -1.51360662      -0.05609466       0.69789567      -0.31403828
O        0.44827847      -0.06096611      -1.22243549        0      -1.47330278      -0.44636536       0.91627035    -111.11701182      -1.56162383      -0.06162441       1.04445969      -0.23864007
C        0.18371839       0.96557245       2.07960417        0      -0.23993085       0.65795503       0.58532939     -59.02549182       2.02449068      -0.12904158      -1.65525753       0.01622171
C       -0.49273410      -0.37717163      -2.23122312        0      -0.56930276      -0.07193705       1.90423136     -58.93921525       5.58951248       0.00438136      -2.44666013       0.01727646
H       -0.18364809       1.91064042       1.77368218        0      -0.23242461       0.07410553      -0.29215302     -12.96271621      -0.70760021       0.94818022      -0.09878867       0.06929890
H       -0.55773707       0.35722922       2.51846549        0      -0.00578142      -0.56980977       0.15339803     -12.91068430      -0.66212329      -0.92144349      -0.04491010       0.08833239
H        0.98645998       1.13149269       2.76515958        0       0.41947685       0.80815397       0.26081955     -12.88130113       0.56764720      -0.05854273       0.44308750       0.08075694
H       -1.32362141       0.16295864      -2.35687076        0       0.22820281       0.22577724       0.37364654     -12.89865137      -2.73290196       3.07735451       0.04336957       0.07549228
H        0.29327073      -0.14211205      -3.12614217        0      -0.30157883      -0.59333258      -0.26263790     -12.56718407      -2.29944804      -1.21073817       1.13406690       0.08195168
H       -0.87107544      -1.32673040      -2.09167615        0       0.74537328       0.38562993      -0.33904773     -12.83611964      -0.05419472      -2.59131613      -0.21374711       0.08042578
12
Properties=species:S:1:pos:R:3:molID:I:1:momenta:R:3:energies:R:1:forces:R:3:charge:R:1 Nmols=1 Comp=DMC(1) energy=-588.4040919974633 free_energy=-588.4040919974633 dipole="0.04280748797469724 0.3058398669789598 -0.002702347164444252" pbc="F F F"
C        0.07711861      -0.27144331       0.11295331        0       0.64233596       0.25934681       1.27298103     -59.30414505      -2.89592587       0.33915603      -1.19159566       0.48490451
O       -0.98360824      -0.80869669       0.37975743        0      -0.07273981      -0.53332171      -2.04676215    -112.61662247       1.45811606       0.28236191       1.20459658      -0.45966792
O        0.89480040       0.49618361       0.80421583        0       0.76498202       0.92567820       0.68344167    -111.40558926      -0.32494326       0.40412464       2.20058331      -0.28550380
O        0.36673046      -0.08254917      -1.16432627        0      -0.38603852       0.02826899       1.03378085    -110.69537735       3.71439532       0.59591827      -0.66444095      -0.25167564
C        0.24829222       1.00641766       2.08964714        0       0.89845674       0.63954195      -1.59417538     -58.75863409      -1.44323016      -2.03266403      -5.29476718      -0.00392436
C       -0.51356138      -0.36966810      -2.16638252        0      -1.01691210      -1.01564979       0.14928262     -58.94711195       0.05468715      -4.88237936      -1.99200119       0.03937521
H       -0.49646103       1.66876713       1.74821935        0      -0.47035735      -0.39839022       0.19295495     -12.85881079      -1.13918609       1.32181796      -0.70530843       0.07151577
H       -0.31107354       0.19499603       2.36844219        0       0.13821149      -0.27295309       0.08276907     -12.62427024      -0.70430425      -2.03493398       1.89131114       0.10722288
H        0.86799461       1.55043084       2.60969796        0      -0.10874438       0.12324008       0.00547534     -12.66072980       3.57470405       1.76049214       2.88678881       0.10724374
H       -1.27011762       0.32147035      -2.01018534        0       0.01705179      -0.58410184       0.05697862     -12.79925056      -2.31166888       0.26482565      -0.25108645       0.08147102
H       -0.19158336      -0.41517683      -3.23055176        0      -0.14466133       0.37543314      -0.38809286     -12.90329417       0.93998008       1.44803677       0.79040078       0.06772168
H       -0.67400919      -1.60197919      -2.21937787        0      -0.26158451       0.45290748       0.55136625     -12.83025629      -0.92262415       2.53324402       1.12551924       0.04131692
12
Properties=species:S:1:pos:R:3:molID:I:1:momenta:R:3:energies:R:1:forces:R:3:charge:R:1 Nmols=1 Comp=DMC(1) energy=-588.0102789222728 free_energy=-588.0102789222728 dipole="-0.14778706111612042 0.21525855091460797 0.04451240207428624" pbc="F F F"
C        0.06303287      -0.22726416       0.14322046        0      -0.39509990       1.07467882      -0.84870231     -58.97670078       1.03863884       1.16070222      -3.32135669       0.47808578
O       -0.95265502      -0.82516835       0.31728641        0       0.81984113       0.11601825       0.14960067    -112.21555022      -0.07286630       0.06619881       2.32723962      -0.41016920
O        0.91631516       0.56423300       0.86958325        0      -0.53740964       0.83502225       0.47127347    -111.07319187      -0.47653287      -2.25459753      -2.42430062      -0.24046654
O        0.44164958      -0.06262272      -1.15024478        0       1.65632039       0.44338605      -0.19641706    -111.35918542      -1.26233938      -0.14973575      -1.01188762      -0.29477593
C        0.25458722       0.97409029       1.94153041        0      -1.06779292      -1.12307831      -0.08810848     -59.09493918      -0.46580171      -1.62370175       4.10885826       0.04876388
C       -0.60074474      -0.47059499      -2.16064502        0      -1.87690456      -1.34947094       1.25412524     -58.56268460      -3.28427792       0.02388413       4.56847546      -0.00897605
H       -0.63545670       1.46483864       1.80061039        0       0.21402548       0.10198817      -0.05830402     -13.12866229      -2.00856550       1.58928872      -0.79899011       0.04789994
H       -0.01238815       0.16460386       2.65113781        0       0.68635281       0.41693225      -0.11934589     -13.01856751      -0.53832479      -1.02295528      -0.53429872       0.03129720
H        0.84690328       1.42796674       2.65777723        0      -0.06401373      -0.19820482      -0.43159722     -12.85622131       1.87802647       2.17703681       0.66318783       0.06750028
H       -1.63348661       0.12608221      -2.05590623        0       0.30808639      -0.22125858      -0.01122939     -12.97166407       1.99593644       0.38299420       0.19363384       0.03919122
H       -0.21231014      -0.08400030      -3.04122849        0       0.35200925      -0.04122173      -0.10144830     -12.55547351       0.69865371      -0.96922735      -1.56191098       0.11940219
H       -1.22211956      -1.38175651      -1.63247632        0      -0.09541470      -0.05479142      -0.01984671     -12.19743817       2.49745301       0.62011278      -2.20865029       0.12224723
12
Properties=species:S:1:pos:R:3:molID:I:1:momenta:R:3:energies:R:1:forces:R:3:charge:R:1 Nmols=1 Comp=DMC(1) energy=-588.4000121588168 free_energy=-588.4000121588168 dipole="-0.07178937179730718 0.26020261042204745 -0.21086448802440194" pbc="F F F"
C        0.05772607      -0.14049291       0.01229979        0       0.12773158       0.03984928      -1.15724957     -59.29745165      -1.04652148      -1.66074347       2.72789343       0.48098057
O       -0.90473752      -0.82908220       0.36945289        0       1.34556106       0.85098309       0.65906767    -112.77270054       1.93518896       1.97044208      -0.14540844      -0.47195225
O        0.87224146       0.57085911       0.82415889        0      -1.58504667      -0.25058085      -0.82579846    -111.48368077      -1.08577882      -0.39215463       0.05488903      -0.29500502
O        0.48499797      -0.06380843      -1.19600508        0      -0.49983406      -0.82190901      -1.85865572    -111.34003083      -1.84169112      -1.11223909      -1.93833878      -0.27484625
C        0.21476708       0.95350952       2.05440919        0       0.42848324       0.93904030       2.68505905     -59.08684081       2.15685890       1.78217579      -0.91402953       0.02346681
C       -0.70335386      -0.51705792      -2.04476371        0       0.44593990      -0.10992047       1.49621645     -58.33579290       2.83694713      -1.02713902      -1.19729680       0.00124248
H       -0.66448381       1.48824464       1.76134644        0       0.14049947      -0.40931792       0.18080096     -12.98363912      -1.19280417      -0.42043745       0.22521257       0.06638924
H        0.13569850       0.08438567       2.69388777        0      -0.29772776       0.27308711      -0.24006557     -12.88597828      -0.16264903       0.42293684       0.29754410       0.08918286
H        0.88222800       1.83946622       2.33434874        0      -0.35072624      -0.10610716      -0.55754547     -12.76690519      -0.43221888      -1.53343866       0.64559342       0.07669853
H       -1.33312171       0.43201384      -1.97220005        0       0.24559389       0.13670510      -0.03615506     -12.59203252      -0.05231361      -2.40831595      -0.33950609       0.10812220
H       -0.13750710      -0.64334774      -2.95631774        0      -0.15880036      -0.37446860      -0.10854353     -12.61392518      -0.05363414       1.45481239      -1.28364240       0.08730038
H       -0.82823087      -1.75223506      -2.10284317        0       0.15832595      -0.16736087      -0.23713074     -12.24103435      -1.06138374       2.92410118       1.86708950       0.10842043
12
Properties=species:S:1:pos:R:3:molID:I:1:momenta:R:3:energies:R:1:forces:R:3:charge:R:1 Nmols=1 Comp=DMC(1) energy=-588.8057080417309 free_energy=-588.8057080417309 dipole="0.019070180064058598 0.32991627651704947 0.11391063222710343" pbc="F F F"
C        0.08309908      -0.14384246       0.00672144        0       0.67132998       0.43194116       0.27361074     -59.41622639      -0.02002754      -0.03176066      -0.27862347       0.49642321
O       -0.82800359      -0.76422145       0.40303041        0       0.19766396       0.61567518       1.21112168    -112.31694110      -3.17295410      -1.95946015       1.16511225      -0.46200990
O        0.77738791       0.58270597       0.79700095        0      -0.31115388       0.87614498      -0.06713270    -111.17033249       2.41641374       2.19145015       1.58317984      -0.27737870
O        0.39732759      -0.13140100      -1.28847554        0      -1.49512184      -0.89678501      -0.88016953    -110.91192652       3.23810825       1.63537214       2.10330110      -0.23540527
C        0.24740274       1.01920844       2.12472763        0      -0.56549126       0.38547862      -0.46274049     -58.87001281       0.15253639      -1.92136510      -0.64726179       0.01533020
C       -0.56078460      -0.57011507      -2.05325300        0       1.87795798      -0.88963379      -1.96118264     -58.98254623      -6.46522153      -1.59104257      -2.38682890       0.05819048
H       -0.83425663       1.08568284       1.94448227        0       0.18596660      -0.28971964       0.37736397     -12.73767886       0.26587361       1.22342963       0.10429858       0.09154250
H        0.18856889       0.14129676       2.89221930        0       0.58601460       0.33841308       0.10072522     -12.79651907       1.12528411       1.33160008      -1.08654109       0.07765829
H        0.94898361       1.88877701       2.33918588        0      -0.24443811      -0.36972775       0.37722253     -12.61591455      -1.51428324      -1.20124786       0.10210323       0.10789034
H       -1.54040351       0.06754146      -2.04848117        0      -0.61847828      -0.37567645       0.03509897     -13.20430124       1.35438262       0.24861772       0.23982866       0.00857204
H       -0.24653415      -0.45329795      -3.09538225        0       0.03883673       0.18008321       0.12374329     -12.91767118       0.08569130      -1.04840673       0.23939056       0.06993403
H       -1.21401350      -1.53851014      -1.67637832        0      -0.32308647      -0.00619360       0.87233898     -12.86563759       2.53419639       1.12281335      -1.13795897       0.04925278
12
Properties=species:S:1:pos:R:3:molID:I:1:momenta:R:3:energies:R:1:forces:R:3:charge:R:1 Nmols=1 Comp=DMC(1) energy=-589.3552963503656 free_energy=-589.3552963503656 dipole="-0.023536565075533554 0.1763758008221578 -0.10274590469934362" pbc="F F F"
C        0.06102464      -0.14050807       0.03830533        0      -1.21618869      -0.17012064       0.18956393     -59.27550100      -0.78123177       0.38726335      -0.00920776       0.48277651
O       -0.86371953      -0.73936382       0.52034958        0      -0.78441048       0.22599265       2.30520367    -112.47837599      -0.12073029      -0.39518585      -0.60753882      -0.44700535
O        0.80590504       0.67589409       0.79880898        0       0.65051366       1.59377287       0.03767877    -111.14954657       0.00628138       0.76652488      -0.97323927      -0.25996986
O        0.37677822      -0.10718659      -1.27856759        0       0.88383440       1.66901186       0.69225441    -111.56590952       0.33881011       1.07518355       0.58007776      -0.31272269
C        0.27187551       0.96670620       2.08589754        0       1.04250375      -1.29336120       0.30276163     -58.99794337       2.63029850       0.52861374       2.13921837       0.03658070
C       -0.64280067      -0.68077144      -2.21771816        0      -1.41932385      -0.95418154      -2.11405317     -58.97967746       4.55496038      -0.79516519       1.03967950       0.00173445
H       -0.81480913       1.05791674       2.15454519        0       0.37865089      -0.08678736       0.02002695     -12.95748514       0.39321214      -0.69300258      -0.08945891       0.08141786
H        0.85603518       0.23364233       2.76093849        0       0.09484248      -0.06960421      -0.25085832     -12.81419748      -1.78635557       0.48537062      -0.47794056       0.06713297
H        0.71289366       1.95897283       2.52872351        0      -0.55479893       0.28969390      -0.44923357     -12.93026371      -0.64187987      -1.18150041      -1.51110837       0.05904985
H       -1.40011211       0.00254055      -2.21484095        0       0.28672451       0.39177943      -0.46725390     -12.84612164      -2.21899906       1.02205316      -0.17035365       0.09380288
H       -0.07057236      -0.75850460      -3.17473271        0       0.05521676      -0.43872184       0.07513161     -12.84594047      -0.68008429       0.07631706       0.71273446       0.08602505
H       -0.63570597      -1.59088982      -1.66375136        0       0.58243550      -1.15747390      -0.34122201     -12.51433400      -1.69428166      -1.27647231      -0.63286276       0.11117762
12
Properties=species:S:1:pos:R:3:molID:I:1:momenta:R:3:energies:R:1:forces:R:3:charge:R:1 Nmols=1 Comp=DMC(1) energy=-588.1620173868849 free_energy=-588.1620173868849 dipole="-0.20358780411404398 -0.06352821815367682 -0.4042076808818042" pbc="F F F"
C       -0.03738408      -0.11181570       0.05182540        0      -0.85668073       0.75885581       0.17844450     -58.98707717       1.53627186       0.63316193       0.57925736       0.46705913
O       -0.90056646      -0.73449099       0.63380329        0      -0.08015570       0.39754415       1.32277722    -112.42601291       1.15153560       0.79696279      -1.92411527      -0.41205508
O        0.82927039       0.78059745       0.77800056        0       0.04330517       0.51558871      -0.79058849    -111.45061159      -1.13397242      -2.73868287      -2.17907484      -0.29981699
O        0.40066193      -0.06124526      -1.22102084        0      -1.12684412      -0.60158809       0.95424334    -111.39923187      -4.15145881      -2.49544045      -0.95649388      -0.27334103
C        0.41622208       0.94137979       2.09414217        0       1.14853603      -0.17167160      -0.30500762     -59.13776133      -2.46053195      -0.20162666       0.23365682       0.02124426
C       -0.66113220      -0.79588472      -2.31604060        0       1.23757647      -1.46276502      -0.78149151     -58.04425407       5.57501600       0.39349158      -0.64187264       0.00243077
H       -0.69481902       0.57437119       2.10662692        0       0.29445891      -0.60705880      -0.10903494     -12.93024963       1.22507520       0.97020004       0.25532408       0.05577330
H        0.82651424       0.19436013       2.85395185        0       0.17308482       0.44607645       0.17994579     -13.01697381       0.46366317       1.72128237      -0.89020705       0.06281431
H        0.42497116       2.05754452       2.02866693        0       0.15238090       0.22893658       0.14398616     -12.65268797       0.30079187      -0.84208236       1.99388857       0.08867907
H       -1.46745304      -0.22397968      -2.56142925        0      -0.25552657      -0.71739870      -0.33206889     -12.77874735      -1.64475119       1.96061928       0.00409627       0.10068182
H       -0.01735974      -0.97438610      -3.28262878        0       0.06907891       0.47929651      -0.24950360     -12.64029241      -0.49708991       1.26843441       1.58253848       0.08660486
H       -0.94342856      -1.79663344      -2.24804580        0      -0.79921408       0.73418400      -0.21170196     -12.69811729      -0.36454942      -1.46632006       1.94300210       0.09992559
12
Properties=species:S:1:pos:R:3:molID:I:1:momenta:R:3:energies:R:1:forces:R:3:charge:R:1 Nmols=1 Comp=DMC(1) energy=-588.9864186594542 free_energy=-588.9864186594542 dipole="-0.011183384319584148 0.18987367421821022 -0.19231729471109635" pbc="F F F"
C       -0.06242983      -0.05919907       0.07892474        0      -0.33351993      -0.34062102       0.52142279     -59.44802293      -0.45194535      -1.45895425      -0.22455089       0.48677698
O       -0.88454068      -0.73718956       0.65083383        0       0.57742672       0.01429272      -0.28745338    -112.67773641       0.10053125       0.48093371      -0.68108151      -0.46218256
O        0.79467216       0.76346050       0.68232518        0      -0.46206295      -0.15192742      -1.67079392    -111.19761249      -0.57500785       0.70772898       1.77134395      -0.25115219
O        0.22806688      -0.11501941      -1.22440364        0      -3.62704306      -1.18997560      -0.59658148    -111.49574497      -0.28846575      -0.09207389      -0.93481545      -0.31445635
C        0.49022894       0.95923665       2.10763291        0       1.77241317       0.67105350       0.39368609     -58.69664738       1.16888857      -1.20729723       1.96552621       0.02392773
C       -0.55149342      -0.83142322      -2.35872048        0       0.40975371       0.40808602       0.83625405     -58.83766781       0.54466373       1.10995265       3.38620578       0.00328870
H       -0.49992402       0.45269488       2.40461760        0      -0.11151327       0.20447906       0.64667524     -12.84638941       1.74238134       0.37395466      -0.52977038       0.08624951
H        1.41183482       0.69548717       2.85237769        0       0.32167456      -0.08557943      -0.69636189     -12.84789401      -1.65095499      -1.03579139      -2.01314551       0.05300261
H        0.48694581       1.94153881       2.53799765        0      -0.50778421       0.03972529       0.22893494     -12.89167017      -0.76529961       1.35730911      -1.38706787       0.07200877
H       -1.33654853      -0.12958090      -2.56823484        0       0.59259212       0.25222797       0.30019604     -12.88480198      -0.62136852       0.25862616      -0.25103390       0.07930575
H        0.22298496      -0.67955096      -3.12869834        0       0.48710681      -0.17221937       0.11081029     -12.50059311      -0.58179856      -1.36903989       0.34232660       0.11882854
H       -1.04665151      -1.73932649      -1.84743869        0       0.88095632       0.35045829       0.21321122     -12.66163799       1.37837573       0.87465136      -1.44393704       0.10440249
12
Properties=species:S:1:pos:R:3:molID:I:1:momenta:R:3:energies:R:1:forces:R:3:charge:R:1 Nmols=1 Comp=DMC(1) energy=-588.3557770029576 free_energy=-588.3557770029576 dipole="0.23294729573886022 0.18101340712280214 -0.10779196686458133" pbc="F F F"
C       -0.06022305      -0.10142969       0.04713059        0       0.17299944      -0.36272222      -0.88388101     -59.56781937      -1.79431873      -0.48295884       1.67009939       0.49467098
O       -0.88033708      -0.73159006       0.64534011        0      -0.84858726      -0.39075156      -0.01234080    -112.57488237      -0.81591005      -0.97458576       0.72631275      -0.47745809
O        0.71743834       0.78411963       0.63146874        0      -1.56856439       0.53422616      -0.43409494    -111.48113153      -0.01253413       0.80792883       0.58546032      -0.31006674
O        0.08792650      -0.14471193      -1.22623673        0       0.19041603       1.55449847       0.58445645    -110.18751582       4.67373876       4.11254669       0.66470264      -0.21765332
C        0.61516177       0.99320346       2.14045320        0       1.78087735       0.18474961      -0.77493180     -58.82679764       0.76877802      -3.10945745      -2.32363944      -0.00127145
C       -0.46958071      -0.74430213      -2.21979334        0       0.58398593       0.13900769       2.05618195     -59.06115674      -2.69765190      -5.56669611      -2.80284374       0.06456879
H       -0.19227102       0.35763841       2.59550194        0       0.09672300      -0.69104847       0.03779944     -12.85429519       0.77336695       0.11578170      -0.65792233       0.08809078
H        1.65595667       0.49010691       2.24662085        0       0.03038709       0.23260720       0.32319484     -12.38018677      -1.53212574       1.83865817       1.37520808       0.11465717
H        0.24734200       1.98967452       2.20737810        0       0.37587330      -0.13374409      -0.36605709     -12.66866441       0.95909510       0.80049989       0.48494966       0.10691991
H       -1.32587978      -0.13278378      -2.66401861        0      -0.12959808      -0.77148868      -0.18686128     -12.96068995       0.54639374      -1.38121262       0.65503321       0.05723693
H        0.18931836      -1.09289555      -3.03504738        0      -0.21748623      -0.23415305      -0.04937696     -12.89450356       0.59995305       1.47735590      -0.05415862       0.05809167
H       -0.61073002      -1.93933329      -1.89144478        0      -0.46702617      -0.06118107      -0.29408878     -12.89813367      -1.46878508       2.36213959      -0.32320193       0.02221337
12
Properties=species:S:1:pos:R:3:molID:I:1:momenta:R:3:energies:R:1:forces:R:3:charge:R:1 Nmols=1 Comp=DMC(1) energy=-588.8073823908854 free_energy=-588.8073823908854 dipole="0.12132058889980757 0.008651766337775401 -0.12153657811413021" pbc="F F F"
C       -0.13770542      -0.11084264       0.10088362        0      -1.12682232       0.32614124       1.01043409     -59.20654883       1.11928136       1.47644933      -1.44552952       0.48386125
O       -0.96933102      -0.76709382       0.62452840        0      -1.51691754      -1.00464866       0.02851038    -112.39871436      -0.36298763      -0.74735624       0.13131271      -0.41849749
O        0.63409665       0.83007599       0.65951128        0      -0.81646336       0.79297315       0.33386219    -110.82475980       1.71109407      -0.37705241      -2.70076940      -0.25216553
O        0.20855881      -0.00509482      -1.21493552        0       2.24659595       1.98895272      -0.05490694    -111.40620086      -2.18801093      -1.83051715       0.02543817      -0.28114417
C        0.75727878       0.93000797       2.00246396        0       1.98581262       0.05113115      -1.99236516     -59.07439899       1.94815828       2.03160106       2.83185746       0.03021325
C       -0.48527990      -0.89617361      -2.18059297        0      -0.80594247      -2.39255179      -0.33967128     -58.87827680      -1.08128536       1.85838345      -0.91723335       0.01416138
H        0.13269359       0.17372740       2.33318200        0      -0.11363719      -0.25209416       0.02991603     -12.82841267      -1.45495214      -0.89494524       1.92325672       0.07940188
H        1.76131585       0.95124133       2.67728667        0      -0.07916692       0.35951518      -0.27213478     -12.95572470      -0.97671744      -1.18124954      -2.38873174       0.04162848
H        0.55917841       1.97913620       2.16777700        0       0.02678891      -0.36879895       0.42087093     -12.77950210      -1.29733806       0.35349127       0.70203148       0.06815950
H       -1.46524223      -0.48775678      -2.68204927        0      -0.09804012       0.60449936       0.11306035     -12.94986656       1.64274752       0.77119222       0.81867667       0.04962352
H        0.28582323      -0.86650808      -2.98005843        0       0.18939438       0.14834974       0.17916856     -12.67467162      -0.73013551      -1.07511895       0.55069297       0.09735765
H       -1.02875511      -1.76912225      -1.80223931        0       0.10839805      -0.25346900       0.54325562     -12.83030511       1.67014585      -0.38487780       0.46899783       0.08740029
12
Properties=species:S:1:pos:R:3:molID:I:1:momenta:R:3:energies:R:1:forces:R:3:charge:R:1 Nmols=1 Comp=DMC(1) energy=-588.3228207776793 free_energy=-588.3228207776793 dipole="0.1389614774234429 -0.05145510456295245 -0.000812425110005854" pbc="F F F"
C       -0.18524739      -0.09760686       0.10416807        0      -0.01132734       0.15155467      -0.32630444     -58.85782314       0.49922134       0.92404324      -0.97338123       0.46394989
O       -1.04671140      -0.79494715       0.63155720        0      -0.46420749       0.18283515      -0.31743666    -112.55841411       2.71469326       1.86145487      -1.71642032      -0.41134361
O        0.62806836       0.87835702       0.61910184        0       0.09909638       0.54790563      -1.04216665    -110.92932444      -1.59207354      -1.38696344       0.34940510      -0.24207396
O        0.26203965       0.03432768      -1.22729281        0      -0.43073329      -0.75299402      -0.09101170    -111.67208611      -1.87359334      -2.66670353       0.97599156      -0.33678178
C        0.81890692       0.94270255       1.99631632        0       0.10827510       0.24099069       1.09958635     -59.08671647       2.25937943       0.37665586       0.90020129       0.02589310
C       -0.52321493      -0.96104696      -2.18425736        0       0.62205157       0.42881501       1.05639316     -58.75522693       3.09200370       2.47335468       1.93816229      -0.02557447
H        0.41443507       0.18684918       2.60856253        0       0.69560557      -0.02010487       0.07975080     -12.96932954      -0.25830189      -2.32623227      -0.06158107       0.06225049
H        2.02976099       0.85680587       2.08146021        0       0.00547093      -0.07643450      -0.42389866     -12.76601479      -2.71337834       0.94900538       0.43668849       0.06710845
H        0.21326306       1.70871386       2.50914403        0      -0.22471694      -0.36968497      -0.06316419     -12.82154398       1.15534684       1.21133672      -0.74299866       0.07150762
H       -1.22465427      -0.16299166      -2.32844168        0      -0.42572994       0.17392559       0.02654214     -12.43784263      -0.99747966      -1.16556997      -1.28938303       0.12809036
H        0.23739404      -1.36788702      -2.86502658        0      -0.25061604      -0.66638526      -0.16851324     -12.79910893      -0.59391667       1.05905454      -0.51805396       0.09384920
H       -0.57807493      -1.72366496      -1.47160413        0       0.27683148       0.15957689       0.17022309     -12.66938970      -1.69190115      -1.30943607       0.70136954       0.10312471
12
Properties=species:S:1:pos:R:3:molID:I:1:momenta:R:3:energies:R:1:forces:R:3:charge:R:1 Nmols=1 Comp=DMC(1) energy=-588.6575617728631 free_energy=-588.6575617728631 dipole="0.22269588905782217 0.11568765011996222 -0.061719762970104036" pbc="F F F"
C       -0.19933484      -0.03666954       0.04361000        0      -0.42731367       1.22497205      -0.73046302     -59.26544956      -0.23842722      -0.80317842       1.24298592       0.48095490
O       -1.03154783      -0.74587483       0.57646210        0       1.11975255       0.85203251      -0.84687899    -112.68028691       1.12159514       1.08643773      -0.75399057      -0.44916017
O        0.60243004       0.86553836       0.60557874        0      -0.70147984       0.08524266       0.49965069    -111.30770189       0.16701028       0.41193787       0.92363016      -0.29279275
O        0.21834037      -0.06406498      -1.21425097        0      -0.77282045      -1.57305480       0.28019663    -110.67160569       0.34204090       1.28844703      -0.73379653      -0.21132634
C        0.84154383       0.92192236       2.06787102        0       0.56986591      -1.19177874       0.57374288     -58.95667552       2.42870586       2.54140095      -2.85957904       0.01420851
C       -0.42701282      -0.90551208      -2.05196310        0       0.32807395      -0.57828549       1.32884293     -58.89992904      -4.22093202      -3.74014241      -2.09462090       0.03111574
H        0.83248734      -0.09811207       2.33608141        0       0.35431740       0.24199770      -0.47888394     -12.76852765      -0.28866926      -0.44117913       1.24945438       0.10186376
H        1.95946856       1.42679288       2.05864779        0      -0.14386707       0.71503641       0.14118129     -12.72263079      -2.23079368      -1.52949625       0.28186044       0.07041606
H        0.23086272       1.75613681       2.41384028        0       0.05530318       0.04654554      -0.03240175     -12.77030818      -0.37674752      -0.91333399       0.61061928       0.09297498
H       -1.41653996      -0.74350171      -2.58976116        0      -0.25627501      -0.51132987      -0.09237127     -12.88187850      -0.23368651       2.26937418       1.36953427       0.03674223
H       -0.11998209      -1.29386915      -3.03660546        0       0.25313473       0.52610513      -0.11707276     -12.81190019       2.52047581       0.05342837       1.06591212       0.07168200
H       -0.85818090      -1.73559951      -1.42836704        0      -0.37869169       0.16251690      -0.52554270     -12.92066786       1.00942824      -0.22369595      -0.30200953       0.05332108
12
Properties=species:S:1:pos:R:3:molID:I:1:momenta:R:3:energies:R:1:forces:R:3:charge:R:1 Nmols=1 Comp=DMC(1) energy=-589.1311249848538 free_energy=-589.1311249848538 dipole="0.2386400174280212 0.1176418233070536 -0.04848167214182868" pbc="F F F"
C       -0.19891680       0.03590327       0.05334512        0       0.82124986       0.30847437       0.89550679     -59.59626603       0.87207384      -1.04907311      -0.26299634       0.49890470
O       -0.98107567      -0.66957827       0.56246487        0      -0.50177371       1.25873331       0.13002155    -112.43909110      -2.55057625      -1.46245406       1.86052769      -0.46265491
O        0.60550734       0.87139273       0.61210730        0       0.65565857       0.41241843       0.36080402    -111.04258775       1.89273766       2.15876448       0.75952128      -0.26798748
O        0.16350899      -0.12225854      -1.19431193        0      -1.10316792      -0.31422802       0.52532502    -111.29088637       0.65412947       0.76862483       0.12526993      -0.31044484
C        0.90434906       0.91842924       2.01312259        0      -0.19429388       0.04635710      -1.22323526     -59.08753455       0.67645293       0.94778922       0.09853755       0.03386584
C       -0.54409187      -1.02196844      -2.08337659        0      -1.40705889      -1.57284104      -1.29018420     -59.00152787       2.71994579       0.01295141       0.67589925       0.00591638
H        0.97241952      -0.09043069       2.42059492        0       0.20673621       0.49705894       0.22985895     -12.97105975       0.44779257       0.01619047      -0.09712132       0.07206084
H        1.88817932       1.57417355       2.13245380        0       0.51562160      -0.16875450      -0.00915171     -12.81201991      -1.91294781      -1.55057052      -0.33484202       0.07601256
H        0.09434136       1.40015913       2.56415444        0      -0.15687444      -0.85568493       0.18795314     -12.95894921      -0.01611827       0.23949198      -0.07920641       0.06782293
H       -1.38949438      -0.41685020      -2.29026284        0       0.49704397       0.55439819       0.36259493     -12.81102230      -1.15982245      -0.49791724      -0.85666852       0.08818977
H        0.37359589      -0.82323379      -2.71922029        0       0.01631111      -0.01561286       0.23182392     -12.17960537      -1.82942554      -1.68214949      -1.18335405       0.12100215
H       -0.69946896      -2.10229896      -1.66358164        0       0.65054752      -0.15031899      -0.40131714     -12.94057479       0.20575806       2.09835204      -0.70556704       0.07731206
12
Properties=species:S:1:pos:R:3:molID:I:1:momenta:R:3:energies:R:1:forces:R:3:charge:R:1 Nmols=1 Comp=DMC(1) energy=-589.1741136799227 free_energy=-589.1741136799227 dipole="0.2612184220627693 -0.010164062716458002 -0.2564120493408372" pbc="F F F"
C       -0.18302053       0.00435733       0.08830119        0      -0.25262405      -0.87497093       0.20035827     -59.34327572      -1.28381308      -1.29816421       0.88489815       0.48206882
O       -1.05732443      -0.62565723       0.65084341        0      -1.55591453       0.72701995       2.26131481    -112.55944727       1.11855722       0.94772514      -0.14815905      -0.44922638
O        0.66448339       0.91924072       0.62855873        0       1.13549736       0.18041255      -0.21515201    -111.21409239      -0.71670428      -0.99002945      -2.17017342      -0.27424086
O        0.13040410      -0.14144862      -1.17480225        0      -0.45091109      -0.31033041      -0.39610998    -111.05293185       0.58474903      -0.46499840      -2.45838546      -0.26380681
C        0.92152846       0.93254735       1.98238186        0       0.59468734      -0.75697879       0.16462564     -59.20834701       3.77898876      -1.91342572      -0.09793980       0.03720705
C       -0.53716197      -1.04741325      -2.15983124        0       1.08066946       1.33805618      -0.85269833     -58.71455340       1.71660043      -1.20257692      -0.15903677       0.02677112
H        1.40604624      -0.07312976       2.36807971        0       0.27675075      -0.08584834      -0.50368139     -13.09840058      -1.56479327       1.20900118      -0.53768858       0.03870503
H        1.84285850       1.54271819       1.96660362        0       0.11026174       0.63351493      -0.04551899     -12.73065185      -0.68414790       0.58518015       0.71510488       0.07895205
H        0.08965345       1.26287363       2.48949601        0       0.15244169       0.35056424       0.18164190     -12.91347072      -1.35143813       0.60192368       1.59271332       0.08076950
H       -1.38403277      -0.50179826      -2.55435962        0      -0.22800740      -0.83589403      -0.55658061     -12.74806831      -0.86438795      -0.64384253       0.82043534       0.09205328
H        0.04355828      -1.16193267      -3.18079537        0      -0.44556795      -0.23432844      -0.30238651     -12.82061743       0.05973203       0.52680176       2.20911084       0.06900652
H       -0.54001669      -2.17226766      -1.74001860        0      -0.41728333      -0.13121690       0.06418721     -12.77025714      -0.79334285       2.64240532      -0.65087945       0.08174066
12
Properties=species:S:1:pos:R:3:molID:I:1:momenta:R:3:energies:R:1:forces:R:3:charge:R:1 Nmols=1 Comp=DMC(1) energy=-588.7697677611052 free_energy=-588.7697677611052 dipole="0.17381473869308695 -0.09738433877619689 -0.07682730866356038" pbc="F F F"
C       -0.24528397      -0.06730664       0.10135188        0      -0.83408353      -0.71771330       0.07153937     -58.96557904       1.68671433       1.78495727      -0.86813448       0.47169331
O       -1.10163781      -0.55205539       0.76898294        0       0.17468816       1.48817825       1.34434483    -112.13623697       0.20628210      -0.46687248      -0.79407519      -0.38689412
O        0.68108689       0.87239851       0.57457070        0      -0.60287679      -1.52896118      -1.00778644    -111.27468459      -1.11742711      -0.62818346      -0.03310362      -0.28684213
O        0.08615787      -0.14720165      -1.25088069        0      -0.96409547       0.85184890      -1.05926472    -111.09659122      -0.11141915       1.59797703       1.67916909      -0.26487467
C        1.02398404       0.92481173       1.98303964        0       1.19581313       0.46502761      -0.13184527     -59.04847124      -1.65694761      -3.44718031      -0.87553386       0.02088855
C       -0.46871850      -0.99460870      -2.21214272        0      -0.17029568       0.19555314      -0.19495892     -59.03259841      -1.16655513      -3.17928702       1.26377588       0.03368930
H        1.39865587      -0.12242064       2.17125707        0       0.06477337      -0.19885239       0.11886327     -12.97702735       0.16776280       1.30913317       0.44970430       0.06318914
H        1.60507816       1.73189827       2.15510720        0       0.25096266       0.18914784       0.21746759     -12.70604510       3.00931292       1.97836347      -0.35448313       0.09258957
H        0.29265332       1.18319433       2.73370683        0       0.01984763      -0.65758154      -0.15849861     -12.95871540      -1.62268494      -0.67499338      -0.26007899       0.06263908
H       -1.56493421      -0.93863153      -2.46673682        0       0.27171395       0.14451494       0.42755556     -12.90908054       1.11839471       1.65243772      -0.76693301       0.06359817
H        0.31610011      -1.19322258      -3.06478746        0       0.63469338       0.12161837       0.06984338     -12.84468700      -1.81202233       0.43330552       1.75977773       0.08148912
H       -0.72988137      -1.89178943      -1.53456394        0      -0.04114080      -0.35278064       0.30273995     -12.82005091       1.29858941      -0.35965755      -1.20008472       0.04883470
12
Properties=species:S:1:pos:R:3:molID:I:1:momenta:R:3:energies:R:1:forces:R:3:charge:R:1 Nmols=1 Comp=DMC(1) energy=-588.9284319671629 free_energy=-588.9284319671629 dipole="0.3585515326203156 -0.11123964176803244 -0.2387692598650839" pbc="F F F"
C       -0.25366443      -0.02314928       0.06499333        0       0.29446990       1.01159329      -0.34016078     -59.38537060      -1.14196887      -0.77345315       2.39014652       0.48511843
O       -1.08445036      -0.49182590       0.83757566        0       0.18169391       1.00882966       0.50541520    -112.68826067       0.74479448      -0.10274158      -2.41991209      -0.46298624
O        0.67466016       0.76534647       0.53873756        0       1.06445648      -1.01852187      -0.02421882    -110.98221467       3.08199369       1.21912862       0.02588681      -0.28887040
O        0.02022096      -0.06612078      -1.23504410        0      -1.09914005       0.87127018       1.04909170    -111.15798124      -0.01822465      -1.24422056       0.24269079      -0.26839041
C        1.06054620       0.89962700       1.96227391        0      -0.95966750      -0.83941958      -0.44524897     -59.02989027      -2.39147016      -2.70199011      -1.44861204       0.00123625
C       -0.46112950      -1.06029192      -2.15829212        0      -0.87005847      -0.18283466       1.11778996     -59.00409626      -1.06618895       4.18955189      -1.83776119       0.02393556
H        1.64070178       0.03758640       2.33169140        0       0.55680726      -0.28955862       0.10778547     -13.01012184      -0.43842388      -0.33362243      -0.42308955       0.06270268
H        1.76535952       1.65507219       1.96034501        0      -0.06115761      -0.10315365      -0.38287034     -12.67272294       0.27967206       2.10815758       0.33216048       0.10473391
H        0.02383808       0.82826093       2.32356734        0       0.08217247       0.14514721      -0.61041426     -12.50594179       0.76254870       0.91762446       1.32296927       0.11368775
H       -1.42333823      -0.45754203      -2.54556612        0       0.57524373       0.01735696      -0.18239152     -12.73685156       1.51332196      -2.24226925       0.25513922       0.07203829
H        0.30908001      -1.11819666      -2.95108420        0       0.09746108      -0.09904694      -0.54905800     -12.82186594      -0.31267557       0.72685788       0.01384623       0.07537235
H       -0.50759539      -2.05281971      -1.89668578        0       0.13771879      -0.52166197      -0.24571964     -12.93311418      -1.01337880      -1.76302334       1.54653554       0.08142184
12
Properties=species:S:1:pos:R:3:molID:I:1:momenta:R:3:energies:R:1:forces:R:3:charge:R:1 Nmols=1 Comp=DMC(1) energy=-588.9076378121734 free_energy=-588.9076378121734 dipole="0.16268856987398958 -0.1698296872771976 -0.23507025208600676" pbc="F F F"
C       -0.27213460      -0.00483762       0.11901347        0       0.09653372       0.27736004       0.95061099     -59.18084014       3.48245138       1.59360918      -2.06258745       0.49022107
O       -1.06595090      -0.44151737       0.83689430        0      -0.45681661       0.22675377      -0.08706164    -112.06414992      -2.34624247      -1.46284383       1.22611957      -0.39177055
O        0.82500475       0.72284449       0.52028205        0       2.96226889      -0.63902707      -1.03999355    -111.13572508      -1.66425383      -0.51715751      -1.73058155      -0.28561291
O       -0.05158227      -0.00931712      -1.19289588        0      -1.66811001       0.69431001       0.36347403    -111.17302393      -1.07164227      -1.78475600      -1.43232573      -0.27447903
C        0.99390820       0.78663432       1.86430826        0      -0.54665345      -0.78234004      -1.22163879     -59.24798872      -1.93405591       3.71243298       1.46065483       0.03527903
C       -0.46165106      -1.06168429      -2.14260794        0       0.04688321       0.75466009      -0.34150625     -58.76121625      -4.83110961       3.16491760       0.97614939       0.02119908
H        1.52170740      -0.03099994       2.14447607        0      -0.33899442      -0.34428220      -0.01373938     -12.94115840       1.33096405      -2.31307850       1.60174800       0.06952558
H        1.52196002       1.71634144       1.94468813        0      -0.42893546       0.04772455       0.39077884     -12.82801849       1.12365958       0.46157371       0.61651359       0.06796211
H        0.05605758       1.05130854       2.48174915        0       0.42504637      -0.04228513       0.28702642     -13.08658244       0.81069285      -1.16284987      -0.90787836       0.04681792
H       -1.38660484      -0.67033139      -2.87331588        0      -0.35275356      -0.30640408      -0.07864516     -12.86764457       1.41364469      -0.71719175       2.22313945       0.04784160
H        0.22933887      -1.08849339      -2.83512671        0       0.58729125      -0.13646245       0.25562008     -12.61611384       4.11208986      -0.20120980      -3.05052672       0.09618777
H       -0.68353519      -2.02831055      -1.79755333        0      -0.32575993       0.24999250       0.53507439     -13.00517603      -0.42619831      -0.77344620       1.07957499       0.07682834
12
Properties=species:S:1:pos:R:3:molID:I:1:momenta:R:3:energies:R:1:forces:R:3:charge:R:1 Nmols=1 Comp=DMC(1) energy=-588.9834335691296 free_energy=-588.9834335691296 dipole="0.41602703136194796 -0.07250809843778226 -0.06188744042814615" pbc="F F F"
C       -0.18227728       0.05379326       0.15873536        0       0.45220510      -0.01796769      -0.42292204     -59.08547010      -4.04876815      -2.83954783      -0.96419764       0.47662864
O       -1.11617428      -0.44221697       0.83944901        0      -0.04975438       0.42740206      -0.14194098    -112.76322909       3.61899703       1.77107833      -1.72212891      -0.45952722
O        0.91801392       0.68489458       0.44521361        0       0.45214439      -0.46359887      -0.95200276    -110.95959379      -0.85474428       0.19976831       2.12018844      -0.22054514
O       -0.18026862       0.00191851      -1.19449048        0      -2.29992205      -0.32070133      -0.42611608    -110.92598124       0.41910508       2.31554036      -0.61460215      -0.29659809
C        1.00781806       0.75882568       1.87167719        0       0.95848350      -0.19419959       1.32604565     -59.06613025      -0.29223936       0.19738411       0.81558419       0.01395366
C       -0.46022870      -0.99467437      -2.15369756        0       1.00126411       0.58193286       0.88665098     -59.07747074      -4.28428694      -0.95343231       2.57094022       0.03283970
H        1.42881513      -0.15048182       2.21104987        0       0.05323824       0.36306313       0.04932752     -12.89703075       0.90997659      -1.25801200       0.31007616       0.06677965
H        1.72366316       1.54085217       2.12025680        0       0.31882440      -0.59417391       0.14570874     -12.86732549      -0.59611468       0.30766156       0.09229207       0.08273522
H        0.00545788       0.70494826       2.42458910        0      -0.23826458      -0.15890174      -0.42408262     -12.76862959       1.04806199       1.03208437      -1.03617274       0.08716425
H       -1.35159955      -0.88804320      -2.88237493        0      -0.30793940       0.24328427      -0.39621128     -12.94858368       1.49975244       0.60659651       1.13475177       0.06821142
H        0.43879880      -1.21384952      -2.53297371        0      -0.59323540      -0.03868920       0.47705083     -12.71339475       2.96608934      -0.66624540      -2.23514651       0.08868722
H       -0.73052019      -1.82305659      -1.48464556        0       0.25295606       0.17255001      -0.12150795     -12.91059409      -0.38582906      -0.71287602      -0.47158491       0.05967069
12
Properties=species:S:1:pos:R:3:molID:I:1:momenta:R:3:energies:R:1:forces:R:3:charge:R:1 Nmols=1 Comp=DMC(1) energy=-589.2488465691976 free_energy=-589.2488465691976 dipole="0.28638510304518067 -0.12714619266352076 -0.003768811764117599" pbc="F F F"
C       -0.23284216      -0.00756359       0.08852580        0      -0.66586379      -0.82241271      -1.32401597     -59.31437869       2.96090417       1.74592797      -1.28839707       0.49969970
O       -1.07207857      -0.39050378       0.78310044        0       0.43561777       0.60622744      -0.51223903    -112.04375623      -2.41552838      -1.59401971       2.45072872      -0.40355223
O        0.92632222       0.59804106       0.43962630        0       0.06643256      -1.76910703       0.83189077    -111.46927042       0.65821326       0.00238955       2.75683070      -0.29963659
O       -0.27655123       0.07282037      -1.22279371        0      -0.63441030       2.13955654      -0.22323885    -110.88673890       0.83826668       1.86216139       0.15520359      -0.27961163
C        1.09803014       0.71537458       1.96357726        0       1.89715528      -1.34694117       0.88723875     -58.79703333      -0.86599584      -1.58002590      -1.25654353       0.01058412
C       -0.46901775      -0.96911740      -2.08169916        0       0.81990635      -0.81912251       1.09016495     -59.23372370       0.55582970      -0.61882843      -1.82249228       0.04600201
H        1.43503639      -0.25710381       2.41904678        0      -0.49317648       0.24268918      -0.11709678     -13.00091398      -0.51326886       0.54149601      -0.84919467       0.06572416
H        1.75823605       1.43508443       2.40648547        0      -0.33305956       0.31350481      -0.00831612     -12.91263407       0.33629369       0.71685826      -1.01782783       0.08487003
H        0.07109424       0.91946303       2.22533203        0       0.07414220       0.27684411       0.19108049     -12.80853034      -0.19237476       0.02168282       0.74421217       0.08792744
H       -1.17443860      -0.47269105      -2.81998880        0      -0.28795564       0.50994419      -0.57151692     -12.72998950       0.59725266      -1.50075515       0.31854199       0.07969741
H        0.58588164      -1.15805494      -2.57070418        0      -0.67864078       0.37869431       0.14784971     -12.94691839      -1.86187860      -0.07354419       0.48703918       0.05047698
H       -0.81998450      -1.87934101      -1.54971551        0      -0.20014761       0.29012284      -0.39180101     -13.10495902      -0.09771370       0.47665736      -0.67810096       0.05781859
12
Properties=species:S:1:pos:R:3:molID:I:1:momenta:R:3:energies:R:1:forces:R:3:charge:R:1 Nmols=1 Comp=DMC(1) energy=-588.9158067577181 free_energy=-588.9158067577181 dipole="0.30128261381918203 -0.14538828625148142 -0.15192879662791473" pbc="F F F"
C       -0.20924081      -0.00454650       0.03265030        0       0.79831804       0.61053672       1.08761056     -59.26634464      -0.61869752       0.72045294       3.40522008       0.48310467
O       -1.09786101      -0.38929389       0.77061000        0      -0.52780721       0.42008810      -0.66928047    -112.39653262       1.02341660      -0.17457404      -1.02274761      -0.43780318
O        0.95019692       0.51121467       0.54120489        0       0.54627878      -1.19415294       2.60746139    -111.35796029      -0.10005955      -0.10910985      -0.00723212      -0.29047263
O       -0.29544921       0.20213940      -1.24934692        0       0.08238286       1.33169872      -1.51042418    -111.07692178       0.09766719      -1.15294219      -1.19313057      -0.25396693
C        1.14927331       0.64740124       1.98549091        0      -0.79998780      -1.54033307      -0.25493474     -59.10959512      -2.09476094       1.11262127      -1.10288073       0.01543880
C       -0.51047711      -0.94668030      -2.08870072        0      -0.33758323       0.46008242      -0.59135410     -58.70173210       4.40545999      -1.72557952       1.32580686       0.03286866
H        1.23879954      -0.33196459       2.42097916        0       0.16165319       0.31035826      -0.02847976     -12.83702731       1.23390409      -0.05508692       0.16226898       0.08739262
H        1.75947094       1.55969780       2.10973814        0       0.39433711      -0.32421564      -0.52587392     -12.74510481       0.63860771      -1.33391719       0.01886607       0.09352491
H        0.20373390       0.98908371       2.43495564        0      -0.07016129      -0.02837665       0.10770783     -12.94478261      -0.40678808      -0.02984864      -0.23772909       0.06300486
H       -1.02794808      -0.68560213      -2.88186167        0      -0.37116671      -0.28406168      -0.59342871     -12.67650518      -2.79552894       1.83801454      -3.67295986       0.09078110
H        0.61375755      -1.15176255      -2.63467382        0      -0.16269998      -0.24086985       0.32650203     -12.82764937      -2.46742000      -0.15036843       1.75066373       0.04489793
H       -1.02554639      -1.88326048      -1.72819072        0       0.28643623       0.47924561       0.04449407     -12.97565093       1.08419945       1.06033803       0.57385426       0.07122921
12
Properties=species:S:1:pos:R:3:molID:I:1:momenta:R:3:energies:R:1:forces:R:3:charge:R:1 Nmols=1 Comp=DMC(1) energy=-588.1882301939424 free_energy=-588.1882301939424 dipole="0.47187462636092004 -0.026558452682566094 0.23627162641989724" pbc="F F F"
C       -0.17394979       0.09868897       0.15806344        0      -0.00305867       1.38146134       0.64061774     -58.66521620      -1.83530542      -1.89693391      -2.98137746       0.46788886
O       -1.08793340      -0.41993196       0.73103186        0       0.28025713      -0.79037439      -0.45019491    -111.84059784       0.29262717       0.49559072       0.03869027      -0.37489441
O        0.97411876       0.44096832       0.65436120        0      -0.59973062      -1.12458563      -0.08364159    -110.56535986      -0.66011044      -0.09369375      -4.04282174      -0.19370215
O       -0.33658850       0.25102059      -1.35186488        0      -0.03112524       0.21250264      -1.21036079    -111.71953351       1.60699520       0.91310865       1.90333106      -0.35548257
C        1.07245511       0.58638747       1.98180813        0       0.21836225      -0.60870385       0.95769708     -59.25538745       3.10683800       0.00196929       2.70299784       0.02966643
C       -0.50099129      -0.88724603      -2.19442200        0       0.03582241       0.44484885      -0.41949584     -58.80307591       5.20712652      -3.50184754       7.96372493       0.04801982
H        1.56774610      -0.29962084       2.50404518        0      -0.14855128       0.16262332      -0.25828642     -12.80878407      -1.82442772       0.07437888      -0.34723626       0.06543900
H        2.01641651       1.16486246       1.99528766        0      -0.16734959      -0.22064879       0.43587778     -12.56491664      -0.58219156       1.14581645       0.65970763       0.07996992
H        0.19770989       1.05307312       2.42965713        0       0.03130412       0.07932309       0.09161597     -12.93499762       0.27182294      -0.32755216       0.34624815       0.07935762
H       -1.06623294      -0.74532954      -2.94958524        0       0.37813932       0.14961659       0.45486046     -12.77996645      -3.34686792       1.29293724      -4.92060516       0.09452776
H        0.59382508      -1.45285234      -2.41984197        0       0.02266082      -0.08328867      -0.17848299     -13.21902410      -2.38458713       1.65749247       0.13929721       0.01487071
H       -0.97165228      -1.61434586      -1.42902759        0      -0.01673064       0.39722550       0.01979352     -13.03137054       0.14808037       0.23873367      -1.46195649       0.04433903
12
Properties=species:S:1:pos:R:3:molID:I:1:momenta:R:3:energies:R:1:forces:R:3:charge:R:1 Nmols=1 Comp=DMC(1) energy=-588.9178263585824 free_energy=-588.9178263585824 dipole="0.32027591053988747 -0.013008505841770034 0.1744351037862433" pbc="F F F"
C       -0.25073405       0.11129076       0.07897894        0      -1.07548544      -0.50084390      -2.39044131     -58.91788371       1.78810714      -0.67937552      -1.34866622       0.48039389
O       -1.09018049      -0.42447470       0.70751197        0      -0.54651771       1.07497833      -0.19731727    -111.83898462      -1.70062273      -0.18541575       0.10069405      -0.37901013
O        0.93846844       0.38802683       0.61900789        0      -0.20685835      -1.01910774      -0.41239507    -111.14954818       0.31843448       1.79498772       0.32072075      -0.26636209
O       -0.27783589       0.29475944      -1.36771412        0       1.12460316       1.32173570       1.42272003    -111.57321945       0.78789566      -0.52990266       3.17249043      -0.30575156
C        1.11545690       0.56840217       2.09812913        0       0.52635751      -0.30097595       1.57630440     -58.86296079      -2.02154941      -2.14681244      -0.49126109       0.02139702
C       -0.43310083      -0.88125259      -2.10609815        0       0.22687569      -0.17440910       0.06386410     -59.03534192      -1.28614626      -0.49151596      -3.50745891       0.05036907
H        1.06759933      -0.55413981       2.49357044        0      -0.59082574       0.21048110       0.02514376     -12.70089105       0.81513265       2.33280543      -0.39797787       0.08367126
H        1.96069320       1.23053893       2.27764661        0      -0.12134603      -0.20749047      -0.06483535     -12.75514788       0.19650392      -0.83483800      -0.27110510       0.09941483
H        0.23958569       1.06015470       2.59734473        0      -0.09646002      -0.12797906      -0.03609693     -12.96944852       0.36233346      -0.34695173      -0.84028600       0.07034227
H       -0.98648900      -0.51377209      -3.05358947        0       0.54630035       0.04810158       0.82867806     -12.89798106       0.06703183      -0.27159181       1.18898278       0.04899140
H        0.49127398      -1.26071896      -2.70634055        0       0.35251448       0.02821897      -0.23440873     -13.06541792      -0.75663565       0.24907542       2.10287843       0.04425441
H       -1.13053672      -1.69698626      -1.70324583        0      -0.13915790      -0.35270947      -0.58121569     -13.15100128       1.42951492       1.10953530      -0.02901125       0.05228962
12
Properties=species:S:1:pos:R:3:molID:I:1:momenta:R:3:energies:R:1:forces:R:3:charge:R:1 Nmols=1 Comp=DMC(1) energy=-588.7637608673875 free_energy=-588.7637608673875 dipole="0.3004376840318808 -0.17820929231424498 -0.20648195691990276" pbc="F F F"
C       -0.24861409       0.09281079      -0.01877766        0       0.53537223      -0.26892432       1.71929722     -59.49792038       0.18260278      -1.14445159       5.68564401       0.49940547
O       -1.14035322      -0.35742368       0.65752473        0      -1.07270352       1.30542401      -1.33337950    -112.47894010      -0.51109546      -0.04229594      -0.44794293      -0.46201571
O        0.93582595       0.35956179       0.59529480        0      -0.31032968      -0.00094230      -0.03152780    -111.51590030       0.95894072       0.56263013       1.82091018      -0.32395732
O       -0.21795868       0.33518965      -1.23770282        0       1.25206195      -0.29226788       1.27166393    -111.18528131      -0.11492398      -1.59907775      -4.65371401      -0.27462629
C        1.07013043       0.50819337       2.12566861        0      -1.01299058      -0.92622245      -0.99634728     -58.75430420      -0.45233303      -1.76903971      -1.23491577       0.02459460
C       -0.40743208      -0.90637477      -2.14240585        0      -0.84444528       1.09133930      -1.53344734     -58.49659338      -1.43230241       2.90215339      -1.12536587       0.01749688
H        0.93236633      -0.49808436       2.74248210        0       0.44947246      -0.16855258       0.27153854     -12.93858203       0.43907492       1.60344298      -1.69921066       0.06591551
H        2.09366128       0.92792845       2.28372514        0      -0.11139350      -0.58382861      -0.11803641     -12.86064685      -1.18802609      -0.29062676      -0.23108143       0.08877425
H        0.21503166       1.11021648       2.41037102        0       0.18285051       0.39858879      -0.32345872     -12.91503417       0.29935855       0.39096224       0.15592511       0.08378888
H       -1.07335137      -0.37220785      -3.03536790        0       0.34495979      -0.27262471       0.07805275     -12.49317445       2.14848487      -1.56616345       1.71035225       0.09691744
H        0.61903905      -1.23364070      -2.29858218        0       0.48033328      -0.06046698       0.49457695     -12.73182209      -0.24440658       0.24572515      -0.73164790       0.09701051
H       -0.98663462      -1.77359165      -1.81240277        0       0.10681233      -0.22152226       0.50106766     -12.89556161      -0.08537429       0.70674132       0.75104703       0.08669578
12
Properties=species:S:1:pos:R:3:molID:I:1:momenta:R:3:energies:R:1:forces:R:3:charge:R:1 Nmols=1 Comp=DMC(1) energy=-588.4480512399826 free_energy=-588.4480512399826 dipole="0.4805523419255136 -0.19717906971396795 0.17010329657554152" pbc="F F F"
C       -0.18529491       0.04511928       0.14298062        0       0.31703684      -0.58840410       0.22405713     -59.04496048      -2.39361607       0.12607288      -3.29368231       0.48166049
O       -1.24599159      -0.27354913       0.60678421        0      -2.32525197       1.10610692      -0.02454326    -112.21326476       1.13213391      -0.21727024       0.66146154      -0.40917465
O        0.94923704       0.40011916       0.65139875        0       0.47946533       0.87883705       1.63017649    -110.88930109      -0.69973356      -0.61928357      -0.29458660      -0.21619870
O       -0.11483148       0.25101747      -1.26045385        0       2.25271821      -2.13052848      -0.56882240    -111.49796438       0.59189159       0.79848767       0.14290873      -0.34428391
C        0.96941176       0.42635742       2.04464789        0      -0.09962013      -0.23448539      -1.06241254     -59.07839210       4.37802828       1.94797299       0.81883828       0.02666486
C       -0.41813931      -0.83947085      -2.17318277        0       0.06224512       1.25106803       0.18831346     -58.72013182      -2.12725127       2.37126648      -1.16766069       0.03060722
H        0.95548764      -0.53145514       2.57603054        0      -0.45539781      -0.52110575      -0.09136366     -12.91914801      -0.81825105       0.39922920      -0.31413751       0.08065909
H        2.11947414       0.77246699       2.10987475        0      -0.06001805       0.15881821      -0.07357427     -12.64777278      -1.79892441      -0.67913737       0.62365253       0.06427796
H        0.46448366       1.32575154       2.42569923        0       0.16587972       0.08448012       0.23603125     -12.86671229      -0.53767569      -0.92916145       0.18102991       0.07986979
H       -0.86390638      -0.62655020      -3.36012926        0       0.03422513      -0.18272029      -0.09672321     -12.83587752       0.65001844       0.09387324       3.66870745       0.05814764
H        0.48944180      -1.23713683      -2.31007334        0       0.10838274      -0.10028418      -0.60309947     -12.84944762       3.46065525      -1.80158527      -1.07771709       0.07072749
H       -0.94822473      -1.45783108      -1.52464945        0      -0.47966514       0.27821784       0.24196047     -12.88507837      -1.83727541      -1.49046457       0.05118576       0.07704273
12
Properties=species:S:1:pos:R:3:molID:I:1:momenta:R:3:energies:R:1:forces:R:3:charge:R:1 Nmols=1 Comp=DMC(1) energy=-588.7907101286196 free_energy=-588.7907101286196 dipole="0.22209399439212604 -0.19748484711146747 0.0286558737893213" pbc="F F F"
C       -0.25689722       0.03272092       0.06259221        0      -1.52555706       0.73681671      -1.52813451     -58.86432178       1.13665286       1.16028737       0.26752375       0.46982745
O       -1.29389022      -0.23595905       0.62104814        0       0.91415562       0.44923512      -0.48914101    -112.29561190       1.65410678       0.02046325      -1.09429732      -0.39691203
O        0.92996550       0.41693270       0.66319015        0      -0.98533002      -0.21908169      -1.01017690    -111.03864881      -0.88621657       0.14495012      -1.39479683      -0.25586758
O        0.05039464       0.17484740      -1.27675272        0       2.37984271      -0.87531264       0.44766059    -111.12635841      -0.19737068       0.03429490       1.90502963      -0.26178396
C        1.01647125       0.41609006       2.04955446        0      -0.09209583       0.02498249       1.19425652     -59.13802033       0.54518544       1.38236174       1.50608063       0.01893786
C       -0.40609208      -0.80609838      -2.12962022        0       0.00326323      -0.53995460       0.99612678     -59.03637624      -3.54434977       2.97732993      -2.66481566       0.03997375
H        0.37516822      -0.35097413       2.33636917        0      -0.36741247       0.10000895      -0.13567015     -12.64812501       0.29123522      -3.06044538       1.06689192       0.08148965
H        2.09380371       0.59839064       2.47823971        0       0.16748463      -0.46108241       0.56348905     -12.90037942      -2.05415740      -0.95914693      -1.17277005       0.07613054
H        0.34851498       1.10704206       2.56241745        0       0.02612410      -0.12823965      -0.18031391     -12.90238896       0.28706958       1.92451192      -0.41176058       0.05456385
H       -1.11646605      -0.27606644      -3.04706488        0      -0.28249061       0.81753825       0.16295508     -12.93312366       2.11036212      -0.91770888       1.79768106       0.03045871
H        0.36254276      -1.34190225      -2.54026954        0      -0.50149363       0.13188022       0.30091717     -12.89849793       1.78806374      -1.18605266      -1.04804853       0.07852329
H       -1.16560833      -1.37840565      -1.71876803        0       0.26350933      -0.03679075      -0.32196870     -13.00885768      -1.13058132      -1.52084537       1.24328198       0.06465847
12
Properties=species:S:1:pos:R:3:molID:I:1:momenta:R:3:energies:R:1:forces:R:3:charge:R:1 Nmols=1 Comp=DMC(1) energy=-588.8402208735313 free_energy=-588.8402208735313 dipole="0.19774756081248634 -0.15340399006557703 -0.18115522883855362" pbc="F F F"
C       -0.24971730       0.14234183      -0.02814833        0       1.35033715       1.84546421       0.62013585     -59.41708200       0.32009982      -1.01035374       4.46250155       0.49888116
O       -1.23104165      -0.18598895       0.58567159        0       0.90179070       0.91454131      -0.49161834    -112.73306897      -0.45175052       0.21988414      -1.34461519      -0.46545780
O        0.88558542       0.41842088       0.60453064        0       0.25668097       0.56759323      -0.56235482    -111.25171527       2.36747295       0.81582460       3.26069747      -0.32149551
O        0.17982718       0.09930815      -1.20977211        0       1.20414765      -1.71620329       0.86154148    -110.78649838      -0.49929535      -1.12095937      -3.64078708      -0.24111616
C        0.91186223       0.35517734       2.14344291        0      -2.91520898      -1.37200665       0.03731196     -58.75292358       0.75587244       2.30490258      -2.26046255       0.00309689
C       -0.50924872      -0.78879625      -2.10683751        0      -0.99236233      -0.87263797       0.12895111     -59.03113564       2.44581138      -2.28054279       0.30773952       0.01757033
H        0.47688818      -0.56165156       2.28351151        0       0.29057266       0.05401442       0.07025320     -12.70261008      -2.26030188      -1.57083137       0.93397917       0.09711580
H        1.90295942       0.14440128       2.62630304        0       0.32299999      -0.34425641      -0.19172223     -12.88470760      -0.30074335       1.18832231      -1.21127856       0.07944506
H        0.42478514       1.35501662       2.34948443        0       0.18349265      -0.16863062      -0.15857315     -12.78237920       0.48432808      -1.62072125       0.72126120       0.09203241
H       -0.95845907      -0.12128280      -2.72330773        0      -0.37652268       0.42191604      -0.57572877     -12.69191184      -2.06791910       1.23338874      -2.12918314       0.09236437
H        0.30760704      -1.34715754      -2.72263897        0      -0.62102264       0.27265416       0.14339776     -12.84070277      -1.08242164       0.84852519       1.04286034       0.07006184
H       -1.13120039      -1.57768044      -1.62184059        0       0.39509487       0.39755157       0.11840594     -12.96548554       0.28884718       0.99256095      -0.14271271       0.07750161
12
Properties=species:S:1:pos:R:3:molID:I:1:momenta:R:3:energies:R:1:forces:R:3:charge:R:1 Nmols=1 Comp=DMC(1) energy=-588.4401829125386 free_energy=-588.4401829125386 dipole="0.20601793456752412 -0.04708478494510316 0.1817594563248177" pbc="F F F"
C       -0.16636811       0.20231828       0.11172063        0       0.77766160      -0.21922340       1.29316145     -59.02707445       0.00563943      -2.06878053      -4.43963456       0.48147944
O       -1.22792837      -0.10212687       0.53515435        0      -0.51043884       1.53823396      -0.95928520    -112.26587401      -0.58742465       0.29598320       0.35348551      -0.40819476
O        0.94770210       0.48332538       0.68531294        0       1.20906436       1.75575887       1.77996515    -110.95377280      -1.57884587       0.21176256       0.44736423      -0.23426555
O        0.21390620      -0.03794136      -1.25511945        0       0.26967928      -2.77845077      -1.33909839    -111.47433859       0.02255266       1.32755321       0.72264293      -0.32054020
C        0.80536269       0.26999239       2.08952467        0      -0.07355781      -0.68885630      -0.67438229     -58.92540288       1.66390946       2.24656020       1.16174597       0.00862441
C       -0.57087477      -0.77329890      -2.15657799        0      -0.78654427      -0.03565323      -0.61562070     -58.83305776       3.22626656      -5.61813888       3.95350691       0.04747082
H        0.29015787      -0.63164889       2.50000492        0      -0.18658347       0.64988071       0.12730953     -12.91116441       0.26930775       0.98115051      -0.84994085       0.08748525
H        1.87513021       0.27634518       2.08830711        0       0.05509992      -0.00224233      -0.28210424     -12.21114103       1.16772734      -0.85485990       2.20685710       0.11389947
H        0.55038711       1.28122117       2.60969857        0      -0.21589292      -0.35537292       0.41117105     -12.89136326      -0.37850794      -1.76661449      -0.69773230       0.06622044
H       -1.17155215      -0.35348594      -2.79135668        0      -0.12035331      -0.30549116       0.17672898     -12.95276894      -2.94992865       3.12740512      -3.28840741       0.07302779
H        0.19765124      -1.51527385      -2.82840072        0      -0.31933252       0.05073939       0.24085598     -12.97181105      -1.77817886       1.70756134       1.93461758       0.03951008
H       -1.23939626      -1.41705270      -1.43206345        0      -0.09880204       0.39067719      -0.15870131     -13.02241374       0.91748277       0.41041766      -1.50450511       0.04528279
12
Properties=species:S:1:pos:R:3:molID:I:1:momenta:R:3:energies:R:1:forces:R:3:charge:R:1 Nmols=1 Comp=DMC(1) energy=-589.2477900841994 free_energy=-589.2477900841994 dipole="0.19304260035879842 -0.26824828390102307 -0.04974671555798396" pbc="F F F"
C       -0.09238187       0.11696302       0.03120200        0       0.35526741      -1.69037180      -2.21408183     -59.11054914      -2.63463689      -0.03966125      -0.13906039       0.47313819
O       -1.23882695       0.01989508       0.46894918        0       0.58990114       2.03958855      -1.47167380    -112.51500753       2.19784567      -0.22716173      -0.75689502      -0.44292162
O        0.93782518       0.59285689       0.75022366        0      -0.88150711       1.53134803      -0.14664679    -110.98561404       0.59674777      -0.44755588      -0.67678591      -0.23105022
O        0.22892915      -0.16987878      -1.26109976        0      -0.12238366      -1.65854648       0.74983987    -111.18197363       0.76496330       0.30613947       0.91361072      -0.26187988
C        0.89862497       0.31827071       2.11559674        0       1.24773215       0.75495549       2.09538711     -58.96933906      -1.73972272      -0.83636331       3.56641865       0.04519009
C       -0.65981027      -0.82971589      -2.15469379        0      -1.82678402      -0.96139169      -0.22159282     -58.96685392       0.07713225      -3.57086553       1.83680787       0.03706232
H        0.10949617      -0.47423233       2.32003823        0       0.48886761      -0.15484340      -0.55813684     -12.99824118       0.68283881       0.39852338      -0.45364328       0.05198233
H        1.81764625      -0.10236418       2.66723416        0      -0.64816766      -0.29594155       0.77773868     -12.96026512      -0.73619912       0.90816622      -1.66537966       0.06398726
H        0.46028159       1.13236740       2.83177561        0       0.41273748       0.37595657       0.00225888     -12.96587983       1.02207000      -0.49323776      -1.63151094       0.05270362
H       -1.18111181      -0.12830569      -2.74878790        0       0.71883117       0.12893813       0.67946429     -12.85413529       0.07371760       0.42119825      -1.09425439       0.08685836
H       -0.02767892      -1.78367705      -2.66518607        0      -0.04046128      -0.10050398       0.10268803     -12.77687807      -1.52516405       2.81834932       0.85816799       0.06588033
H       -1.49274548      -1.36668175      -1.53404827        0      -0.29403322       0.03081212       0.20475522     -12.96305329       1.22040737       0.76246883      -0.75747564       0.05904923
12
Properties=species:S:1:pos:R:3:molID:I:1:momenta:R:3:energies:R:1:forces:R:3:charge:R:1 Nmols=1 Comp=DMC(1) energy=-588.0184384635071 free_energy=-588.0184384635071 dipole="0.04602414741786353 -0.4268057526945453 -0.19653149891711913" pbc="F F F"
C       -0.12409461       0.03764134      -0.05789845        0       0.91495100       0.06964998      -0.01375098     -59.25336466       4.81800136       2.66098103       1.70966240       0.49706215
O       -1.18027187       0.09016449       0.38176535        0      -0.44385414       0.78218453      -1.07747717    -111.92339952      -5.45137409      -0.94880523       1.82839014      -0.41074287
O        0.91203079       0.65615728       0.73404303        0       0.25391374       0.76154322      -0.07736188    -111.83179062       1.38324259      -1.73805694      -0.06964710      -0.38398516
O        0.24646345      -0.25598396      -1.23655847        0       0.84761098      -1.65841045      -0.21447879    -111.15091144       1.31926022      -1.38673707      -0.46882652      -0.26115665
C        0.91344614       0.35032300       2.25920139        0      -0.84647910       0.16890888       0.59085922     -58.60165320      -0.73281999       0.80030201      -1.99183137       0.01686070
C       -0.74906634      -0.92845705      -2.08370387        0      -0.36393182       0.50114138       0.55698074     -58.90802613       1.95692568       2.14820996      -1.17598057       0.00050880
H        0.14839518      -0.44716046       2.14438527        0      -0.60760265       0.28660104       0.69829527     -12.83219111       0.04322801       0.85897473       1.59793619       0.08426861
H        1.83063703      -0.05944021       2.85348170        0       0.46255424       0.42719452      -0.32397597     -13.03492755      -1.06987649       0.81376517      -2.01974355       0.06475684
H        0.67062798       1.42000214       2.57333874        0      -0.09710486      -0.11931884       0.00695792     -12.73028035      -0.12977130      -1.90242469       0.40577423       0.09213769
H       -0.80235847      -0.01687371      -2.75731591        0       0.14724113      -0.78812274       0.02109434     -12.54021108      -1.53572218      -1.15763191       0.05170414       0.09146526
H       -0.02606249      -1.58174450      -2.74199041        0       0.22242252      -0.41143633      -0.31378371     -12.55335927      -2.03316164       0.08266279       1.64787859       0.09853205
H       -1.66440306      -1.15251396      -1.42746225        0      -0.48972103      -0.01993518       0.14664100     -12.65832354       1.43206783      -0.23123983      -1.51531659       0.11029258
12
Properties=species:S:1:pos:R:3:molID:I:1:momenta:R:3:energies:R:1:forces:R:3:charge:R:1 Nmols=1 Comp=DMC(1) energy=-587.8721143186111 free_energy=-587.8721143186111 dipole="0.2693561548994734 -0.29106658962083165 0.1740130336552741" pbc="F F F"
C       -0.01227241       0.09638884       0.01418191        0       0.09631700       1.06719786       0.83362550     -59.07538061      -5.75456864       0.71350020      -1.26141368       0.46264844
O       -1.24774673       0.14772322       0.33655386        0      -0.13043832       1.28921998      -1.20787849    -112.73979666       4.33492886      -0.78373833      -0.82751387      -0.48002863
O        0.91092820       0.66527340       0.72989436        0      -0.69688752      -0.09100322       0.29738075    -111.13539371      -1.29507740      -0.99081475       0.35947903      -0.25593968
O        0.34779880      -0.38437729      -1.23792682        0       1.95883464      -2.41924918       0.76076737    -111.31687032      -1.09657564       0.88607603       1.19824658      -0.26113791
C        0.79293209       0.37096932       2.20034522        0      -1.35451167       1.02480249      -1.46390971     -58.49800777       1.26763150       3.22776671       0.82692601       0.00325523
C       -0.71632118      -0.90546735      -2.05109249        0       1.01632447       0.35360211      -0.32363656     -58.85609025      -2.75016929       1.28294549       0.14719840       0.02848870
H        0.05292323      -0.21709870       2.78191746        0       0.17229130      -0.02196485       0.11595465     -12.75623998       0.59081638      -0.58650296      -1.82607006       0.10021786
H        1.86345593       0.20627312       2.05987267        0       0.08395686      -0.17726132      -0.38687054     -12.10369275       0.04841282      -0.96615906       2.50987096       0.13182040
H        0.63437375       1.37078067       2.84820322        0       0.09954522      -0.02069784       0.10958780     -12.82257428       0.54014383      -1.26949052      -1.81655132       0.06429926
H       -1.10011667      -0.37300817      -3.02825883        0      -0.16470928      -0.46661372       0.29605038     -13.00874152       1.40421862      -0.34927606       2.01057337       0.06033883
H       -0.47464633      -1.87150854      -2.22740547        0      -0.51188523      -0.53880072       0.63380802     -12.73785702       1.82932621      -2.91364136      -1.61267056       0.07868356
H       -1.68667581      -1.23258814      -1.52425645        0      -0.56883746       0.00076843       0.33512084     -12.82146945       0.88091275       1.74933462       0.29192514       0.06735393
12
Properties=species:S:1:pos:R:3:molID:I:1:momenta:R:3:energies:R:1:forces:R:3:charge:R:1 Nmols=1 Comp=DMC(1) energy=-588.5760123855067 free_energy=-588.5760123855067 dipole="0.015143390672334682 -0.2003720102608113 0.1126092861882398" pbc="F F F"
C       -0.11370181       0.16299974      -0.01226393        0       0.66139677       0.02616165      -1.76212514     -59.01677391       6.84477561      -1.16675216      -2.38312944       0.49854152
O       -1.20201975       0.21696302       0.28021281        0      -1.40264028       0.97280970      -0.42573374    -111.67062087      -6.81010996       0.16800578       1.46515892      -0.37666389
O        0.87589187       0.64407197       0.72969259        0      -0.22491249      -0.12458389      -0.32940300    -111.01122358       1.80700279      -0.07169410      -0.84639550      -0.25979727
O        0.41288853      -0.48211605      -1.15152337        0      -0.21616801      -0.86589898       1.60288880    -111.81089282      -1.81385223       0.83005740       0.51004206      -0.32730845
C        0.78511446       0.45418888       2.09853776        0       1.40467602      -0.08375657      -0.57819412     -58.94867865      -0.08808532      -1.13381970       2.83603665       0.04195982
C       -0.72538981      -0.99177791      -1.97683076        0      -0.02636550      -1.53435111       1.52448843     -58.88093282       2.19427369       5.20673953      -1.73472567       0.00062862
H        0.12291453      -0.47071513       2.31022470        0      -0.46063211       0.17775050      -0.65278609     -12.92951125      -0.65303139       2.19460957      -0.06990921       0.05272593
H        1.64073746      -0.08425207       2.59028469        0      -0.39414676       0.07461617       0.67594455     -12.89075379       0.70403226       1.06736544      -1.08096282       0.05727371
H        0.69814925       1.47210015       2.67770856        0      -0.27017484       0.16850874      -0.32502016     -12.89979443      -0.62752126      -2.03323342      -1.00027814       0.06630995
H       -0.77336330      -0.41650738      -3.04499222        0       0.81414962       0.15786588       0.19849389     -13.02540713       0.61635033      -1.29078224       2.10403247       0.04837766
H       -0.57142961      -1.97192684      -2.08103773        0      -0.03686990       0.11804875      -0.06352035     -12.83977924       0.08257867      -3.42069337      -0.36225192       0.09370475
H       -1.49602540      -0.55676756      -1.43744159        0       0.15168748       0.91282917       0.13496692     -12.65164391      -2.25641318      -0.34980272       0.56238262       0.10424763
12
Properties=species:S:1:pos:R:3:molID:I:1:momenta:R:3:energies:R:1:forces:R:3:charge:R:1 Nmols=1 Comp=DMC(1) energy=-588.0697132543576 free_energy=-588.0697132543576 dipole="0.14937335350258113 -0.2625954843280655 -0.09804446570247996" pbc="F F F"
C       -0.06220980       0.15947400      -0.10549320        0      -1.44619468       0.54477575       1.30407534     -59.24650358      -3.94650939       1.12929211       4.77851566       0.48518706
O       -1.27361757       0.27160709       0.24308670        0       0.36260994       0.70149744      -1.61990474    -113.05227606       3.55172259      -0.00221270      -0.93781441      -0.50526681
O        0.93032877       0.61537877       0.65081444        0       2.41662504      -0.43524755      -2.10018389    -111.30773139       1.89864648      -0.21587815       1.18618249      -0.29409441
O        0.39846573      -0.53197989      -1.03923328        0      -0.03375575      -1.34176591       1.18867125    -110.80528666      -0.70857381      -2.07988152      -2.10575929      -0.21980085
C        0.81631861       0.41725254       2.10002607        0      -1.51180094      -0.42623828      -0.06309619     -58.57867981      -4.12225040       3.53800081       0.36488907       0.00617280
C       -0.70794404      -0.97544700      -1.88001170        0       0.66405057       0.89105200       0.76012296     -58.87339101       3.02804117       2.94838664      -2.38595527       0.00202463
H       -0.29165555       0.15644276       2.14546417        0       0.01641362       0.13271900       0.50849340     -12.44242445       1.38446130      -2.18373914       0.51284491       0.10168459
H        1.65821584       0.07696570       2.78485079        0       0.04465850      -0.05715022      -0.14306042     -12.90119526      -1.36091720       0.23045957      -1.75738778       0.09142230
H        0.31927151       1.46443628       2.45990841        0       0.11642392       0.22803640       0.12893174     -12.65566859       2.52578647      -0.70358997      -0.05726484       0.05576315
H       -0.23489316      -0.55104483      -2.81002469        0       0.20392875      -0.18428207      -0.30282704     -12.67379552      -1.31961797      -0.57545985      -0.14122625       0.07974840
H       -0.87660794      -1.97067639      -2.00914838        0      -0.49158094       0.47592951       0.64019298     -12.84524775       0.14153699      -2.76015851       0.28172021       0.09031877
H       -1.59070379      -0.47906401      -1.60197537        0      -0.34137803      -0.52932608      -0.30141539     -12.68751318      -1.07232623       0.67478071       0.26125550       0.10684035
12
Properties=species:S:1:pos:R:3:molID:I:1:momenta:R:3:energies:R:1:forces:R:3:charge:R:1 Nmols=1 Comp=DMC(1) energy=-587.984034056805 free_energy=-587.984034056805 dipole="0.08229384541599906 -0.17647318101602325 0.2862263207665795" pbc="F F F"
C       -0.12550800       0.20021784       0.02060653        0       1.26685876       0.03100453       1.14602476     -58.88652932       3.15012349      -1.42391117      -2.68277460       0.48499141
O       -1.27681023       0.37228890       0.18614391        0      -1.03157151       2.68097160       0.11514357    -112.16140301      -0.49809109       0.67020478       1.04529243      -0.39196855
O        1.02852708       0.57134869       0.60221677        0       0.00827038      -0.97578284       0.40482012    -111.46359350      -3.69660890      -0.47636667       3.02509961      -0.28532334
O        0.36277156      -0.60131894      -1.02734060        0      -1.83426061      -0.37017910      -0.03126212    -111.22408235      -0.68944366       2.41888893       0.33641632      -0.28283023
C        0.68867858       0.46901004       2.09432477        0      -0.35038121       0.23040710      -0.60502069     -58.36659562       5.11621266      -1.67588750       0.71918324       0.00500051
C       -0.66226880      -0.92673413      -1.89292195        0      -0.06412664      -1.63046984      -0.11335104     -59.07242214      -0.42741320      -5.25577835      -0.07030292       0.03882290
H       -0.02247969      -0.31852969       2.60617289        0       0.42454592      -0.10450953      -0.09489329     -12.58287957       0.10944783       2.57636569      -1.75631712       0.10226571
H        1.63613654      -0.23443137       2.36494438        0       0.15418509      -0.45010257      -0.55753907     -12.63166568      -1.07977326       1.33605107      -0.21775961       0.06280470
H        1.09603801       1.47008504       2.46645737        0       0.59472595      -0.03515500       0.07184866     -12.57320382      -1.76152345      -1.34658822       0.07129952       0.10495400
H       -0.47133813      -1.10475830      -2.94780278        0      -0.12979606      -0.49124249      -0.11292489     -13.06186578       0.83787512       0.83011286       0.01966082       0.06180891
H       -0.82854436      -2.04560642      -1.53148411        0       0.55684287       0.53264849      -0.16625593     -12.94339713      -0.45030298       1.22567430      -0.83161961       0.02792765
H       -1.61679580      -0.49473489      -1.77035328        0       0.40470706       0.58240966      -0.05659007     -13.01639614      -0.61050256       1.12123428       0.34182194       0.07154632
12
Properties=species:S:1:pos:R:3:molID:I:1:momenta:R:3:energies:R:1:forces:R:3:charge:R:1 Nmols=1 Comp=DMC(1) energy=-588.6024096246512 free_energy=-588.6024096246512 dipole="0.23721940249114054 -0.32322041914909094 -0.005221149489119814" pbc="F F F"
C       -0.07618836       0.18476127       0.01481401        0      -1.08125398      -0.27498970      -1.53104796     -59.18108048      -4.27015350       0.59751617      -1.80485786       0.48290916
O       -1.25301434       0.53549603       0.20778977        0       1.76601771       1.73894784       0.48798868    -112.73534044       2.76936212      -1.04037159      -0.06666909      -0.46582442
O        0.96709252       0.53013136       0.68479042        0      -1.57012684      -0.33574893       1.55735324    -110.63099527       1.29939985       1.04390093      -1.78459112      -0.21907193
O        0.30080880      -0.55017600      -1.02929700        0       0.60250532       1.49889786      -0.25181854    -111.32980365       0.77633222      -0.97355646      -0.34277121      -0.29334189
C        0.86306059       0.39516518       2.00291309        0       2.70566058      -1.58406985      -0.56750951     -58.95810048      -3.82741147       0.92191798       4.69590748       0.04965071
C       -0.72957608      -1.10150213      -1.93462116        0      -1.08844277      -1.68813158       0.23305875     -58.90728385       0.69836904       0.06919288       2.51023088       0.00532241
H       -0.31497890       0.04394575       2.31318366        0      -0.53361491       0.72121710      -0.54392004     -13.00469379       2.88535873       0.42304793      -0.68200542       0.03194729
H        1.58882767      -0.31519470       2.25090017        0       0.23055993      -0.35815752       0.63698176     -12.80611517       0.83166510      -1.19608498       1.14151992       0.07501699
H        0.94490426       1.31700453       2.69904648        0      -0.39490817       0.28300081       0.29920571     -13.00184302       0.28347887      -0.82909351      -1.50933330       0.05264545
H       -0.28779193      -1.04430186      -2.92383689        0       0.32643001       0.20932553       0.14361661     -12.82497304      -0.00547248      -0.80804508       0.09132339       0.09103240
H       -1.01036128      -2.19675580      -1.42249433        0      -0.89505185       0.30285985      -0.16928579     -12.74306071       0.27117402       2.84655753      -1.77539294       0.07815304
H       -1.34230866      -0.20644181      -1.80540977        0      -0.06777504      -0.51315141      -0.29462289     -12.47911973      -1.71210249      -1.05498180      -0.47336073       0.11156079
12
Properties=species:S:1:pos:R:3:molID:I:1:momenta:R:3:energies:R:1:forces:R:3:charge:R:1 Nmols=1 Comp=DMC(1) energy=-587.9449719609388 free_energy=-587.9449719609388 dipole="-0.14276005509301506 -0.5734916146405703 -0.1635705189252878" pbc="F F F"
C       -0.15507430       0.16116582      -0.09927730        0       0.39431946      -0.17502815      -0.61146378     -59.29420652       2.35944938       1.99862658       3.14178586       0.49711969
O       -1.16262891       0.64602323       0.27009064        0       0.19077213       1.97939233       1.05012063    -112.17646162      -2.63017800      -0.59906444      -0.78929732      -0.41790685
O        0.94896257       0.51695059       0.66728232        0       1.63698180      -0.13096006      -1.34873169    -111.29279709       2.66087580      -1.18748852       0.67731671      -0.33811277
O        0.30849987      -0.50415752      -1.07415900        0      -1.06755743      -0.67556154      -1.33346636    -111.07074938      -3.04299034      -2.58395963      -2.06165276      -0.23030841
C        0.94041469       0.31941540       2.11597001        0      -0.37117182      -0.01068778       1.76038091     -58.85211035      -4.77997034       3.54664894      -2.52050583       0.02552447
C       -0.76768566      -1.18117663      -1.91506082        0      -0.83812568      -0.01090615      -0.00480599     -58.44161065      -2.18369428       2.66271930      -0.83655307       0.00540619
H       -0.14012674       0.15053920       2.24641602        0      -0.66179431      -0.67826188       0.76843466     -12.93881561      -0.40865749      -0.16393150       0.52072550       0.05268878
H        1.35378065      -0.37790035       2.68741138        0      -0.40197135       0.08846122      -0.03213329     -12.93845505       2.75912452      -3.19462380       0.85694272       0.07596724
H        1.03946691       1.27583599       2.59769382        0       0.78514504       0.39769308      -0.07198273     -12.95419404       0.66499813       0.71232867      -0.02076017       0.06535053
H       -0.18357115      -1.26010163      -2.83819077        0      -0.03610953      -0.62915063      -0.16964958     -12.60726736      -0.73840733      -0.77963825       0.26078397       0.10828890
H       -1.55337172      -1.93918049      -1.58748532        0       0.12871997      -0.27830140       0.31467560     -12.64369088       2.60812397      -0.15720558       0.46035058       0.09655759
H       -1.74449285      -0.45288107      -2.15189756        0       0.24079171       0.12331095      -0.32137838     -12.73461343       2.73132600      -0.25441178       0.31086380       0.05942464
12
Properties=species:S:1:pos:R:3:molID:I:1:momenta:R:3:energies:R:1:forces:R:3:charge:R:1 Nmols=1 Comp=DMC(1) energy=-587.6235401690502 free_energy=-587.6235401690502 dipole="0.06550944427159343 -0.3970576217847223 0.21697428152220855" pbc="F F F"
C       -0.09380816       0.23744201      -0.03193150        0       0.93090618       1.59361517       1.57027377     -58.73442718       0.99597372      -0.38540700      -0.98797552       0.46671086
O       -1.15815377       0.68499683       0.30731804        0       0.31549107      -0.77699426       0.15641572    -112.01426659       1.07924477      -1.11682781      -0.88644938      -0.37634332
O        1.09219572       0.49643366       0.63891305        0       1.47503287      -0.48011379       0.60426069    -111.55900769      -3.55264030      -1.00480581       0.92749922      -0.31010729
O        0.19123067      -0.61181585      -1.18884109        0      -1.97571624      -1.78761648      -1.36607020    -111.33602640       1.58483254       2.40317894       2.74504334      -0.28897316
C        0.81844380       0.39513819       2.20869479        0      -0.16754055       0.15107859      -0.25046163     -58.38293783       8.13589692      -1.48369234      -5.76336231      -0.00890902
C       -0.82717155      -1.16254737      -1.91671992        0       0.22758844       0.25461707      -0.81814721     -59.03608878      -1.94203006       0.34754043      -1.56718019       0.04336709
H       -0.01098593       0.12896570       2.58820861        0      -0.27699907       0.42210201       0.02045618     -12.65514202      -6.05704078      -0.66749223       1.88575619       0.11133231
H        1.48108135      -0.52932819       2.28545309        0       0.00163785       0.63814442      -0.71121442     -12.63756268      -0.55048485       0.46825643       0.54708323       0.08022417
H        1.48917435       1.13645918       2.46756701        0       0.30901722      -0.05136150       0.12262995     -12.52267247       0.29248821       1.89323498       1.24949873       0.11756286
H       -0.58965390      -1.83108544      -2.75631775        0      -0.38610163      -0.24596029       0.41856583     -12.96963203       1.46917559       0.67260924      -0.18885122       0.05944835
H       -1.19286035      -1.98661787      -1.26431268        0      -0.25416217       0.18426457       0.34736984     -12.84679757      -1.67597486       1.23281963      -0.03715121       0.06002818
H       -1.39871816      -0.24414258      -2.51822759        0      -0.19915399       0.09822449      -0.09407851     -12.92897893       0.22055910      -2.35941447       2.07608911       0.04565897
12
Properties=species:S:1:pos:R:3:molID:I:1:momenta:R:3:energies:R:1:forces:R:3:charge:R:1 Nmols=1 Comp=DMC(1) energy=-588.2880288946761 free_energy=-588.2880288946761 dipole="0.11744147581821027 -0.1465656105256926 0.31525897391948693" pbc="F F F"
C       -0.00691554       0.30656202      -0.00163187        0       0.67056706       0.07076703      -0.95636646     -58.80289404      -2.39953637      -2.57838461      -2.40971787       0.47012531
O       -1.12330896       0.64834327       0.29510071        0       0.84080061      -0.87648985      -0.33371120    -112.18707130       0.70138017      -0.13067881      -0.47730865      -0.40497550
O        1.07007952       0.46502299       0.68236221        0      -1.39573914      -0.50038569       0.85047884    -110.99535552       1.36940255       0.34749715       0.13928372      -0.24074272
O        0.17023547      -0.64090592      -1.19293465        0       1.02714191       0.70294009       0.81910978    -111.73552140       0.45737489       2.17019528       2.16627678      -0.34541653
C        0.90785840       0.42309859       2.15128024        0       1.49462154      -0.15713813      -1.10430092     -58.77217354       3.14589919      -3.27531310      -2.05013495       0.01022149
C       -0.92391410      -1.18387362      -1.94608028        0      -1.88845255      -0.81205649       0.99444213     -59.04140796      -1.71684013       3.13705342       1.03345761       0.03218670
H       -0.09180868       0.53536827       2.26967666        0       0.56539253       0.16351950      -0.63310630     -12.65650792      -3.11322010      -0.60541655       0.92680625       0.10250799
H        1.46248481      -0.66654550       2.28981182        0      -0.54075216      -0.00305686       0.60604624     -12.55094908      -1.66239997       2.53144316       0.63515963       0.08701273
H        1.34299969       1.19789491       2.72225144        0      -0.42003254       0.09529028      -0.04185485     -12.80645391       1.21141185       0.77525242      -0.07357204       0.09280779
H       -0.42755070      -1.94584221      -2.57104324        0       0.33594287       0.28678979       0.34357583     -12.83038926      -1.03461955       0.51911268       0.45309397       0.09436520
H       -1.77236733      -1.32243164      -1.24359770        0      -0.45534393       0.63163824      -0.15695032     -12.91108006       0.79908608      -1.78825822       0.17572485       0.06381458
H       -1.59911149      -0.32640568      -2.44219789        0      -0.23414621       0.39818209      -0.38736278     -12.99822490       2.24206138      -1.10250283      -0.51906930       0.03809294
12
Properties=species:S:1:pos:R:3:molID:I:1:momenta:R:3:energies:R:1:forces:R:3:charge:R:1 Nmols=1 Comp=DMC(1) energy=-588.3450636976656 free_energy=-588.3450636976656 dipole="-0.04287823681529791 -0.49257360165554553 -0.31923471797935976" pbc="F F F"
C       -0.04274486       0.24015252      -0.12582000        0      -0.47182226      -1.68732627      -1.66572381     -59.26694127      -0.10937897       0.12093726       3.33006698       0.49131215
O       -1.08704919       0.63655368       0.28872485        0      -0.07216456      -0.00287301       0.01471358    -112.23977274      -1.27010560       0.25395457      -0.70331787      -0.42958940
O        1.05750282       0.44355316       0.69878994        0       0.83152682       0.05488656      -0.41468574    -111.09905197       2.11376798      -1.30568801      -3.19750920      -0.28784388
O        0.19767306      -0.55500540      -1.10048506        0      -0.06648022       2.13904996       1.73074345    -111.27034653      -1.50272278      -0.86912594      -1.36342299      -0.26465423
C        0.97412508       0.39135069       2.03931842        0      -1.93263092       0.02747376      -0.63195757     -58.95336068      -4.59197389       0.59569579       3.43949845       0.05720537
C       -1.02547552      -1.13068862      -1.86133887        0       0.28996311       0.66198240       1.41821849     -58.65886127       3.49764128      -2.14321705       0.95636602      -0.00293095
H       -0.26160573       0.51077732       2.22008564        0       0.52852295      -0.15884221       0.49346990     -12.93787070       2.41691366       0.61060212       0.18465176       0.02518073
H        1.04321463      -0.51971356       2.72158808        0       0.01235863      -0.04506183       0.06413488     -13.15755057       1.04665568       0.30445171      -1.73497110       0.03818291
H        1.51584074       1.23793238       2.49058907        0       0.36553105      -0.24541063      -0.55513837     -13.05807813      -0.34667061      -0.36107602      -0.16167536       0.05845620
H       -0.38944563      -1.94118099      -2.31265186        0      -0.28163726      -0.43068931       0.15845313     -12.50648098      -0.72428585      -0.33624260       0.38872738       0.09248754
H       -1.82919566      -1.67466761      -1.24977618        0       0.25467100      -0.39668391      -0.08485076     -12.66880432       1.04853654       1.85377632      -0.83781992       0.10786188
H       -1.05073400      -0.54344054      -2.73451769        0       0.54216168       0.08349450      -0.52737717     -12.52794453      -1.57837744       1.27593186      -0.30059416       0.11433169
12
Properties=species:S:1:pos:R:3:molID:I:1:momenta:R:3:energies:R:1:forces:R:3:charge:R:1 Nmols=1 Comp=DMC(1) energy=-588.9105595869237 free_energy=-588.9105595869237 dipole="0.04735988067877068 -0.34349748679022707 0.06508608675460743" pbc="F F F"
C       -0.10048393       0.22576304      -0.03576605        0      -0.57135893       0.79091227       2.91019424     -59.20888820       2.23673468      -0.48586838      -0.55218770       0.48892084
O       -1.15885701       0.63429551       0.26896514        0      -1.97065201       0.09891064      -0.36989739    -112.23766735      -1.24583681       0.55069435       0.92350483      -0.41309142
O        1.11677458       0.39542575       0.60689951        0       0.17321950      -1.18090311      -1.90074191    -111.62652734      -3.52277337       0.31071605       0.18445679      -0.31571401
O        0.15643379      -0.50557277      -1.09886628        0      -0.43282484      -0.38473738      -1.46963512    -110.93403476       1.64131443      -0.76548114       0.11917989      -0.26043444
C        0.87108777       0.39637846       2.05447537        0       0.32630885       0.40447266       0.89665413     -58.81375188       2.58552248       1.59034697       0.34719773       0.01450558
C       -0.83807744      -1.15482787      -1.83282306        0       2.98984017      -0.91797322       0.12305481     -59.17984505      -2.59781435       0.15501255       3.09556967       0.02867959
H       -0.12653217       0.85407771       2.58992536        0       0.12652481       0.31654762      -0.20187157     -12.80752868       2.29717403      -1.54201727      -1.86490923       0.08496677
H        1.35178458      -0.57061364       2.25675134        0      -0.03346905      -0.20702963      -0.51374232     -12.70606255      -1.51728830      -0.26762672       0.96714206       0.08428560
H        1.78445321       1.03289998       2.28149615        0      -0.03585211      -0.21808692       0.20648416     -12.71996767      -1.25794475       0.17650114       0.68401622       0.07326680
H       -0.51191651      -2.10965770      -2.13223009        0       0.19149148      -0.06377847      -0.03426877     -12.86893530       0.53769328      -0.84840028      -0.47521748       0.08474879
H       -1.80818079      -1.30367491      -1.13037109        0      -0.06818579       1.05929626       0.10355908     -13.01294134       1.77183776       0.31135388      -1.36121880       0.04726559
H       -1.07402348      -0.47047132      -2.56783910        0      -0.69504208       0.30236929       0.25021066     -12.79440946      -0.92861908       0.81476884      -2.06753398       0.08260031
12
Properties=species:S:1:pos:R:3:molID:I:1:momenta:R:3:energies:R:1:forces:R:3:charge:R:1 Nmols=1 Comp=DMC(1) energy=-588.5405416792784 free_energy=-588.5405416792784 dipole="0.1783294737909161 -0.2197054444552927 0.438975322081659" pbc="F F F"
C       -0.11365166       0.21793114       0.08542470        0      -1.06299956      -0.73470065      -0.55478801     -58.87396981      -2.59357776      -0.25976000      -5.08768170       0.47436586
O       -1.24033337       0.63871372       0.28196203        0      -0.41564960      -0.12740487       0.69905992    -112.44018695       2.38473729      -1.26886022       0.45110182      -0.41021390
O        1.04111684       0.35094681       0.55230429        0      -0.94918301      -0.52608138       0.54368502    -110.76298267       2.43447412       0.62701200       3.94678629      -0.21846855
O        0.21756541      -0.47636638      -1.17400738        0       2.85938986       1.94314421      -0.34265846    -111.38623430       0.69193990       1.86350954       2.40775055      -0.32534033
C        1.01391512       0.38581207       2.06004266        0       1.81091829      -0.76239865      -0.75650179     -58.56521310      -5.09883677      -0.20717361      -1.25645783       0.00481835
C       -0.79680150      -1.12967992      -1.80664748        0      -1.34038664       1.50001653      -0.25452663     -59.37345493      -1.92953496       0.96252042       0.35692856       0.03729143
H       -0.14170293       0.86676093       2.15418738        0      -0.07529186      -0.09515689      -0.28247047     -12.56671338       2.65188140      -0.55949782       0.57704530       0.07413161
H        0.73363513      -0.70337033       2.30523382        0      -0.75031176       0.08490560       0.63123602     -12.72671392       1.45344997       1.53790499       0.34711707       0.08650317
H        1.69334161       1.02100603       2.61898522        0       0.01118129      -0.04131781       0.20364871     -12.72219723       0.20068278      -0.65975455      -0.63345254       0.11128534
H       -0.38711374      -2.03960175      -2.13765385        0      -0.34284925      -0.05509863       0.08112724     -12.95990544      -0.07189573      -1.55066626       0.06279538       0.06778322
H       -1.62713290      -1.05911443      -1.07652317        0      -0.25488645      -0.72982830       0.31530703     -13.00628052      -0.16200715      -1.16985300      -0.50521516       0.05663463
H       -1.18080097      -0.62853109      -2.67923975        0       0.51006869      -0.45607915      -0.28311859     -13.15668943       0.03868691       0.68461852      -0.66671773       0.04120918
12
Properties=species:S:1:pos:R:3:molID:I:1:momenta:R:3:energies:R:1:forces:R:3:charge:R:1 Nmols=1 Comp=DMC(1) energy=-588.4459450727682 free_energy=-588.4459450727682 dipole="-0.12269241602222603 -0.5684073715215198 -0.2042682620837454" pbc="F F F"
C       -0.17499045       0.16972576      -0.09215418        0       1.08699855       0.01315896      -2.94725961     -59.02373319       3.07987318       1.92142689       2.77788327       0.49118993
O       -1.19356663       0.61187895       0.31336722        0       1.05190921      -0.58119741       0.67464875    -112.22828561      -0.84422338      -0.66288996      -0.57817823      -0.40001090
O        1.01773609       0.33839992       0.64724254        0      -0.21042841      -0.21750181       1.20165423    -111.06037365       0.20689737      -0.60049421      -0.90997910      -0.28767825
O        0.32418771      -0.36370578      -1.14366100        0      -0.22005070       1.38656716       1.14498460    -111.05225079      -4.56159451      -2.18459175      -2.52627339      -0.24083287
C        0.96641836       0.31699950       1.98445776        0      -1.67830552      -0.03427037      -0.10285865     -59.00094701      -0.78690725       3.47006566       4.75743746       0.06683262
C       -0.89765298      -1.07628798      -1.80091434        0       0.06598288      -1.34582681      -0.44455495     -58.58908494       2.58898516      -1.27152878       0.54439603      -0.00578758
H        0.07438485       1.07803223       2.40669168        0      -0.04895952       0.71332676       0.41171063     -13.16359770       1.88604182      -1.41514318      -0.96587945       0.01189140
H        0.78969493      -0.56276368       2.56797921        0       0.35089973      -0.49298230      -0.04595204     -13.19968071      -0.55730266      -1.36627392      -0.66163012       0.03696403
H        1.92197927       0.67202295       2.55233132        0       0.23864540      -0.33950338      -0.42278867     -13.05693349      -1.10285662       0.09007132      -1.69273530       0.04278481
H       -0.57366371      -2.09999219      -1.89732371        0      -0.00714487       0.18942656       0.31769309     -12.65144872       1.26892623      -0.65687612      -0.73321374       0.08474216
H       -1.73429571      -1.39577373      -1.20395992        0      -0.48529066       0.44297393      -0.19673325     -12.67334280      -0.67360916       1.83106512       0.69558558       0.09834927
H       -1.04497898      -0.70789215      -2.77396763        0      -0.14425611       0.26582871       0.40945586     -12.74626646      -0.50423019       0.84516895      -0.70741301       0.10155537
12
Properties=species:S:1:pos:R:3:molID:I:1:momenta:R:3:energies:R:1:forces:R:3:charge:R:1 Nmols=1 Comp=DMC(1) energy=-588.6204499724936 free_energy=-588.6204499724936 dipole="0.06769614369400524 -0.17929807205452689 0.09346397129442977" pbc="F F F"
C       -0.07988587       0.28197127      -0.08258742        0       1.22769587       1.95303058       2.16467019     -59.34115385       3.15166803      -2.53669086      -0.69674421       0.49600001
O       -1.13049082       0.54626255       0.31292947        0       0.09256124      -0.75091317      -0.16726819    -112.14868316      -4.19228528       1.36806542       0.89864312      -0.42083072
O        1.01092519       0.29274461       0.66906180        0       0.21767074      -0.63488254      -1.00014232    -111.30126190       0.06172715       0.48847772      -0.99647941      -0.30573849
O        0.22160413      -0.37318568      -1.22211374        0      -1.96355281      -1.53734863      -2.47294656    -111.51537537       0.31283913       0.10863557       0.09495075      -0.31388580
C        0.87099892       0.34376071       2.10831909        0       0.49376036      -0.19379652       0.91574544     -59.05248296       3.58505490       1.86177144      -2.43903292       0.00550081
C       -0.86080916      -1.13915511      -1.80933609        0       0.30282038       0.73815562      -0.12214689     -59.01506053      -1.04381238       5.17168617      -0.82624964      -0.00046032
H        0.45507562       1.24138856       2.46275617        0      -0.29077385       0.56542536       0.34556018     -12.88304715      -1.69209936       0.46893035       0.43600333       0.08458789
H        0.61592588      -0.62753182       2.34928222        0      -0.71286461      -0.08014636       0.11072112     -12.81530953      -0.68712496      -1.27102827       1.36392732       0.09347590
H        1.94993473       0.62730014       2.12339915        0       0.04435417      -0.02326916       0.28108729     -12.38916418      -0.00687667      -0.93251936       1.73627618       0.09887259
H       -0.45222445      -2.09576486      -1.93024494        0      -0.32147691       0.14306872      -0.15567723     -12.75783182      -0.58174832      -1.08838485      -0.05175529       0.10460147
H       -1.74734451      -0.66752656      -1.31772710        0       0.53422328       0.31510999       0.13360480     -12.57011961       0.03812820      -2.16415740       0.98175608       0.09762901
H       -1.13220881      -0.51402197      -2.72205768        0       0.37558215      -0.49443390      -0.03320783     -12.83095991       1.05452957      -1.47478593      -0.50129531       0.06024765
12
Properties=species:S:1:pos:R:3:molID:I:1:momenta:R:3:energies:R:1:forces:R:3:charge:R:1 Nmols=1 Comp=DMC(1) energy=-588.512530735287 free_energy=-588.512530735287 dipole="0.17263002441030528 -0.13964354048924615 0.4442726415298826" pbc="F F F"
C       -0.00594491       0.31628914      -0.00395070        0      -0.96343464      -1.11603933       0.15805139     -58.79639769      -3.52431874      -2.77956388      -2.55338320       0.46772810
O       -1.16336180       0.51769048       0.32535105        0      -0.12040599      -0.49088158       0.53764427    -112.33841321       2.20248949       0.23018165      -0.17989048      -0.41420102
O        1.07564993       0.32730808       0.66522288        0       2.15200542       1.19534817       0.75474915    -110.80466849       1.37380095       0.33751623       1.45847880      -0.20953528
O        0.20031381      -0.42970326      -1.30339363        0       1.44057910       0.61894534      -0.19413897    -111.46448375       1.28663411       1.79848321       3.07292622      -0.31272903
C        0.88377997       0.38532262       2.12797376        0       0.11833532      -0.14646752      -0.09386192     -58.82450574       2.70945254      -3.24216507      -1.33753909       0.00344654
C       -0.87598141      -1.05100145      -1.85540498        0      -0.61881928       0.62806368      -1.63636746     -59.16232202      -2.61071219      -2.63715648       0.65459773       0.05023720
H        0.25072882       1.09465498       2.38199147        0      -0.39536142       0.11613459      -0.15120270     -12.52658031      -1.72494968       4.75897594       1.18448150       0.10471133
H        0.19489550      -0.37891145       2.37083100        0      -0.27009799       0.17556610      -0.16910180     -12.72444239      -0.46340250      -2.20030277       0.14829582       0.07719268
H        1.82442771       0.17549172       2.72174438        0      -0.36177984      -0.47320043       0.46609662     -12.73653507      -0.92463860       0.82838485      -1.18140881       0.09733856
H       -0.88592013      -2.20155518      -1.88471176        0      -0.28351515       0.09367356       0.54984620     -13.15155970       1.24288406       0.71181794       0.65615872       0.02084380
H       -1.84659303      -0.99395965      -1.19050199        0      -0.47373024      -0.59940676      -0.44648530     -13.00300898       1.32833462       1.12153475      -1.67203208       0.05314188
H       -0.85300074      -0.89046810      -2.91964710        0      -0.22377529      -0.00173582       0.22477053     -12.97961338      -0.89557404       1.07229364      -0.25068514       0.06182524
12
Properties=species:S:1:pos:R:3:molID:I:1:momenta:R:3:energies:R:1:forces:R:3:charge:R:1 Nmols=1 Comp=DMC(1) energy=-588.8020110243542 free_energy=-588.8020110243542 dipole="-0.12207265416910776 -0.43249492439900555 -0.19740187627511444" pbc="F F F"
C       -0.04629130       0.15698199      -0.07959725        0       0.33571816      -1.83468397      -1.32039371     -58.97745011      -0.15507257       1.90836035       2.34149944       0.46785752
O       -1.13477493       0.50999007       0.37460769        0       0.75937254      -0.41042662       0.87609569    -112.48339573       2.27259383      -1.29255567      -1.35051068      -0.43061528
O        1.15054135       0.39096974       0.72009221        0       0.17759907       0.53505101       0.64973038    -111.54606286      -1.38819841      -1.33768543      -1.95371281      -0.31433595
O        0.24673109      -0.37862589      -1.23530278        0      -0.26336800       1.40885092       1.25488004    -111.22787448      -2.33331416       0.32467432      -0.26465301      -0.25532871
C        0.80756952       0.37196973       2.09442312        0      -1.57323365       0.34656177      -0.58260102     -59.14334208       0.80854297       0.61880106       0.26767034       0.03523177
C       -0.95734231      -1.08215890      -1.93637864        0      -0.58538125      -0.64729919      -1.21238057     -58.57979512       1.41182004       0.08828042       1.26561637      -0.00179607
H        0.55381847       1.39843821       2.30572564        0       0.80766538      -0.47602386      -0.01063249     -12.89205151      -1.40276049       0.19872287       0.41290616       0.06703292
H        0.10417818      -0.44575690       2.20510285        0      -0.05345245       0.01102591       0.04689090     -13.08116481      -0.41248449       0.49024029       0.70271316       0.06082730
H        1.64411653       0.26555038       2.80867468        0       0.18991789       0.32562578       0.02056302     -13.04668441       0.31415626      -0.70246230      -0.98730310       0.05895472
H       -0.49505545      -2.05842351      -1.58984208        0       0.27577761       0.16097118      -0.10197799     -12.38604351      -1.72249738       0.38517243      -1.51672625       0.11772113
H       -2.02726960      -0.85500706      -1.67521468        0      -0.36659515       0.53888585       0.13732149     -12.73387134       1.33862883      -0.13746827       1.26499393       0.09540575
H       -1.04323027      -0.75560445      -2.97144367        0       0.29597985       0.04146122       0.24250426     -12.70427508       1.26858557      -0.54408006      -0.18249356       0.09904491
12
Properties=species:S:1:pos:R:3:molID:I:1:momenta:R:3:energies:R:1:forces:R:3:charge:R:1 Nmols=1 Comp=DMC(1) energy=-589.1296828262896 free_energy=-589.1296828262896 dipole="-0.02072620812704248 -0.3922610299128731 -0.0054804209914256575" pbc="F F F"
C       -0.03524482       0.16268066      -0.04409265        0       0.63204437       0.74353808       2.15801094     -59.32059852       3.64640285      -0.05313380      -0.80060942       0.49674968
O       -1.07341907       0.45355161       0.36516727        0       1.05566617      -0.63347014      -0.27592396    -112.08413514      -4.34002375       0.71227702       1.72828306      -0.42199948
O        1.10987190       0.37801083       0.68890370        0      -1.59404093      -0.40342458      -1.50178991    -111.57250478      -1.60901038      -0.88100159      -0.23775464      -0.30430477
O        0.18479756      -0.31974818      -1.24650041        0      -1.35787144       0.28762270      -1.79459274    -111.47113733       0.71834922      -1.48987444      -0.43050791      -0.30449005
C        0.79048199       0.37364358       2.10375235        0       0.64382022       0.70924301       0.60270149     -59.02978461       0.18806616       2.28372102      -0.25322492       0.02993934
C       -0.93701654      -1.06337926      -1.91830190        0       2.03221443       0.69442808       0.40594278     -58.81943486       5.61065976      -1.67608171      -1.78734857       0.00153567
H        0.54382815       1.46655879       2.45279011        0      -0.65689745      -0.74277738      -0.07232358     -12.98218957       0.45093890      -1.78324357      -0.57582844       0.05792302
H       -0.03974215      -0.26302773       2.42531865        0      -0.06073467       0.26505378       0.10911961     -13.08017540       0.28528716       0.02320534      -0.48538347       0.06748008
H        1.74948210       0.05992824       2.45096568        0      -0.00756653      -0.55780936      -0.33637042     -12.76505044       0.37927136      -0.13732970       0.99808656       0.08748270
H       -0.75156549      -2.23107314      -1.85984968        0      -0.63494447      -0.29111042      -0.12442847     -12.95723304      -0.30424601       2.01062680       0.55206409       0.05974689
H       -1.71584603      -0.73540395      -1.37110248        0      -0.02074490      -0.01185063       0.35154772     -12.57750454      -3.11150435       0.86160220       0.46557351       0.12026308
H       -0.53150935      -0.84835486      -2.95717348        0      -0.03094481      -0.05944313       0.47810654     -12.46993458      -1.91419093       0.12923244       0.82665015       0.10967383
12
Properties=species:S:1:pos:R:3:molID:I:1:momenta:R:3:energies:R:1:forces:R:3:charge:R:1 Nmols=1 Comp=DMC(1) energy=-588.5894203636764 free_energy=-588.5894203636764 dipole="0.22034642527816342 -0.23777428418809127 0.3449761182477451" pbc="F F F"
C        0.03331572       0.19785789       0.00552793        0      -1.41518400      -0.20040661      -1.07981528     -59.09314809      -5.94052635      -0.59834168      -3.19134913       0.47776597
O       -1.11382942       0.42491108       0.37546478        0      -1.10006793      -0.29832287       0.10849773    -112.55037303       1.44255639      -0.41372047      -0.12801580      -0.45883737
O        1.06797966       0.34722292       0.66667139        0       1.34553599      -0.41838146       1.05770497    -110.71937242       3.57729641       0.31657475       2.57453225      -0.20264237
O        0.17785171      -0.30893846      -1.32358930        0       1.51803515       0.21958903      -0.67846086    -111.22279970       2.84256494       0.49689299       2.47624926      -0.27947544
C        0.82875280       0.35206866       2.10766832        0      -0.63459305      -0.78539753      -0.03364509     -58.71211655      -3.25135307       1.00159991       0.27354458       0.02365530
C       -0.81694495      -1.02996405      -1.86071909        0      -0.00638027       1.17228811       0.36390016     -59.06839094      -5.10264197       2.13814910      -3.03018362       0.05161236
H        0.28312952       1.39825361       2.52740955        0       0.42459256      -0.05610057       0.08434282     -12.66266643       1.87350308      -2.35705196      -1.20011512       0.07903793
H       -0.01665978      -0.39635405       2.21859941        0       0.01877528      -0.20405439      -0.29822090     -12.80723886       0.68970904       0.66365664       0.26187429       0.07419243
H        1.64641351      -0.03058053       2.69184103        0      -0.15361393       0.33838677       0.42442630     -12.76687977       0.52465167       0.55118882      -0.28059520       0.09858907
H       -1.15398925      -2.03094634      -1.64174295        0       0.24646954      -0.03466101       0.30167813     -13.10660685       1.63830607      -0.76379514       0.09008999       0.05369069
H       -1.83704825      -0.55924466      -1.61238480        0       0.11508070       0.36835970      -0.62550947     -12.95419310       0.68214352       0.24617906       0.47711520       0.03348970
H       -0.92657223      -0.72045469      -3.00160916        0      -0.35865004      -0.10129918       0.37510149     -12.92563461       1.02379026      -1.28133201       1.67685330       0.04892174
12
Properties=species:S:1:pos:R:3:molID:I:1:momenta:R:3:energies:R:1:forces:R:3:charge:R:1 Nmols=1 Comp=DMC(1) energy=-588.318662216074 free_energy=-588.318662216074 dipole="-0.20536981795931256 -0.3714564726758115 -0.15297105698422084" pbc="F F F"
C       -0.10319480       0.14914478      -0.10284063        0      -0.55213948      -0.70132013      -1.04237772     -58.56210619       4.31491820       0.95818755       1.34608685       0.46653916
O       -1.15502524       0.40530646       0.38881217        0      -0.65423381      -0.36260386       0.39291254    -111.99710638       0.36305514      -0.53233089      -0.81277381      -0.36626462
O        1.16398471       0.33436815       0.73964698        0       0.36880634      -0.45395796       0.71719685    -111.79144150      -3.58575418      -0.82513247      -1.16781743      -0.34122049
O        0.30536484      -0.27406438      -1.30921741        0       1.66734007       0.47722395       0.77713690    -111.39607412      -2.45204834       0.48181908       1.08686042      -0.26484449
C        0.75387132       0.28519288       2.11978926        0      -0.08500368      -0.56032936       0.62339790     -59.08902805       0.33595500       2.91964252      -0.63210588       0.03505944
C       -0.93719682      -0.92638315      -1.88331444        0      -1.05461342       1.70095990      -1.36278303     -58.60036998       3.08407513       0.89521571      -3.54647598      -0.00144992
H        0.50806011       1.42762111       2.46035273        0      -0.44995008       0.39498199      -0.25709477     -13.00178307      -0.41205049      -2.57191046      -0.69598262       0.04361528
H        0.01545854      -0.50408009       2.22731457        0      -0.03845485      -0.09742758       0.27868219     -13.09354719      -0.22263596       0.59273957       0.46420525       0.06438218
H        1.63539162       0.11082095       2.68020951        0       0.02226537      -0.20210144      -0.65958636     -12.96395352       0.90774633      -0.65024447       0.41839141       0.07134037
H       -0.69312453      -1.87026486      -1.51077401        0       0.13490361       0.22745789       0.20901859     -12.55598217      -1.43680112      -1.61676155       0.98622906       0.10570416
H       -1.73301040      -0.20926614      -1.64226940        0       0.08961540      -0.13569833       0.25140936     -12.59991749      -0.06653785      -1.18132653      -0.42672977       0.11810497
H       -0.69162758      -1.18701921      -3.12035445        0       0.55146454      -0.28718506       0.07208755     -12.66735257      -0.82992186       1.53010195       2.98011249       0.06903396
12
Properties=species:S:1:pos:R:3:molID:I:1:momenta:R:3:energies:R:1:forces:R:3:charge:R:1 Nmols=1 Comp=DMC(1) energy=-588.6872319140448 free_energy=-588.6872319140448 dipole="-0.026959972713285242 -0.32891289493858245 -0.05632651660592718" pbc="F F F"
C       -0.03176804       0.17403736      -0.08839960        0       1.11348394       0.73109956       2.16508622     -59.25977385       0.19036754       0.53231677       2.89797897       0.48040050
O       -1.15369210       0.32414112       0.34438233        0       0.35864405      -1.55141818      -1.58703910    -112.66232300       0.70610338      -0.11563141      -0.32150069      -0.45958655
O        1.07567180       0.28436591       0.74246776        0      -2.70398014      -1.16553178      -1.19451695    -111.42150748      -1.62000221      -0.23389759      -1.19003256      -0.28716811
O        0.31008225      -0.21628975      -1.25966065        0      -1.01121797       0.89633214       0.19305813    -111.20354588      -1.12660093      -0.46649928      -1.98667524      -0.25057891
C        0.75696700       0.28817486       2.11242930        0       1.49136495      -0.42770990      -0.98034086     -59.12214895       1.53039041       0.74745339       0.88517996       0.03505699
C       -0.87213133      -0.83136556      -1.92675336        0       1.57531739       0.36919546       1.55929994     -58.52838270       1.64304970      -2.18279837      -0.02167625       0.00078364
H        0.21870802       1.22201195       2.44034204        0      -0.13781976       0.58819525       0.55349880     -12.97921132       1.29690509      -0.35333907      -0.23732751       0.06366990
H        0.10911952      -0.45799766       2.49153573        0       0.00588641      -0.23429612       0.15602110     -13.07872212      -0.93614387      -1.29874290      -0.43972883       0.05599082
H        1.77560556      -0.01534540       2.51815529        0      -0.50176725       0.28612241       0.26035795     -12.77475062      -1.10948442       1.26459176       0.21408764       0.07633833
H       -1.08733195      -1.67155403      -1.22247973        0      -0.39090343       0.40367741      -0.07134831     -12.78640603       0.85517524      -0.96739124      -0.87888034       0.06467400
H       -1.83256181      -0.40670144      -1.58221629        0       0.05889564       0.19897397      -0.57280967     -12.37522030       0.52130808       1.43443061      -1.89832359       0.12338103
H       -0.40143296      -1.26702008      -3.03082778        0       0.14209616      -0.09464022      -0.48126729     -12.49523964      -1.95106802       1.63950732       2.97689844       0.09703836
12
Properties=species:S:1:pos:R:3:molID:I:1:momenta:R:3:energies:R:1:forces:R:3:charge:R:1 Nmols=1 Comp=DMC(1) energy=-588.2377533964361 free_energy=-588.2377533964361 dipole="0.24402943700622934 -0.051726383811308424 0.371884663429293" pbc="F F F"
C       -0.01952019       0.22689952       0.04452334        0      -1.38540580      -0.26326344      -0.20218302     -59.16434081      -1.52997905      -1.96010744      -4.95971667       0.49431389
O       -1.16972684       0.25124219       0.24285842        0      -1.58905447      -0.82268486      -1.12400710    -112.15197875      -3.18247454       1.04633002       2.67799110      -0.43651931
O        0.99512579       0.22352853       0.74598659        0       1.16407661      -0.48400499       1.76898875    -110.58658457       4.21716234       0.99498352       1.38018371      -0.20231650
O        0.26757040      -0.17181621      -1.27440673        0       0.43943194       0.34089547      -0.18747984    -111.26763869       3.39060097       0.58972195       1.02478200      -0.31055061
C        0.77680568       0.28762944       2.12306424        0       0.60506749       0.34022888       1.16371597     -58.95332952       3.46189294       0.15127371       1.42451329       0.02080848
C       -0.75464421      -0.82712040      -1.86304585        0      -0.00759736       0.80866693       0.37305858     -58.93964023      -1.89823352       1.13148506      -5.22312181       0.05300937
H        0.37201853       1.14524505       2.48837792        0      -0.25560390       0.33999971      -0.24058449     -12.82857618      -1.77717835       3.04198775       0.25639252       0.07350198
H        0.10664130      -0.45900247       2.29114910        0       0.03599751      -0.01480938      -0.12608789     -12.72245647      -1.54185424      -2.47685739       1.37283652       0.08503727
H        1.72982303       0.32124385       2.81992282        0      -0.15172237       0.04469753      -0.37501076     -12.77158678      -1.11124636      -1.07360116      -1.92096254       0.07405560
H       -1.12264886      -1.68505886      -1.30286551        0      -0.04928282       0.11598186      -0.12052638     -13.14731181      -0.59328548       0.61860303      -0.20865773       0.05786194
H       -1.40690018       0.01085506      -2.39855502        0       0.73781665      -0.10398848      -0.17311673     -12.77927177      -0.67175284      -1.22586159       2.40590286       0.04393568
H       -0.52307928      -1.11797282      -2.96307552        0       0.45627654      -0.30171923      -0.75676710     -12.92503781       1.23634813      -0.83795748       1.76985674       0.04686221
12
Properties=species:S:1:pos:R:3:molID:I:1:momenta:R:3:energies:R:1:forces:R:3:charge:R:1 Nmols=1 Comp=DMC(1) energy=-588.0975680622585 free_energy=-588.0975680622585 dipole="0.05482877809974485 -0.3087109346995175 -0.0945674662278441" pbc="F F F"
C       -0.11455694       0.13422800      -0.05356367        0      -1.15068935      -1.75413365      -0.95760447     -58.76083793      -1.22905764       1.09281654       3.23221615       0.45501027
O       -1.33625927       0.22808049       0.24376148        0      -1.58470951       0.44599918       1.02667845    -112.64520947       5.09784963      -0.31316800      -0.13113616      -0.43768510
O        1.08460091       0.23570396       0.81826132        0       0.05167979       0.19445739       0.54848820    -111.79833379      -4.01705288      -0.50406192      -2.00230123      -0.33618067
O        0.35473861      -0.10278608      -1.22570864        0       1.16348292       1.22533871       1.01080368    -110.92479406      -1.71071919      -0.67645734      -0.79579165      -0.22565562
C        0.74967829       0.32464860       2.21698926        0       0.21972651      -0.07658223       0.45008337     -58.98189741       5.22427659      -3.59455114      -1.43289556       0.01614255
C       -0.68042595      -0.80315054      -2.01564255        0       1.48899020       0.04552057      -3.12849021     -58.73509812      -1.86415844       2.32778156       0.87276191       0.00364412
H        0.20706493       1.16457175       2.23486002        0      -0.10941393      -0.17214983       0.17865582     -12.73252349      -1.21318777       3.23458456       1.50705789       0.09678680
H        0.20467518      -0.53751147       2.50476943        0       0.21386704       0.23861407       0.35337952     -13.10884696      -0.83938303      -0.80566034       0.32427846       0.05806441
H        1.90976993       0.04747111       2.54233397        0      -0.30049434      -0.11313057      -0.08841609     -12.51941062      -2.78238217       1.71307791       0.34155629       0.08483333
H       -1.24485018      -1.53249640      -1.43001711        0      -0.20984807       0.31770602      -0.10203577     -12.89337483      -0.28387446       0.50337624       0.67833238       0.07398953
H       -1.51112083      -0.06007775      -2.48784609        0      -0.06457752      -0.41677845      -0.17838990     -12.65820561       2.37785054      -1.64723979       0.56793426       0.09215779
H       -0.00055619      -1.41205897      -2.45835722        0       0.28198625       0.06513878       0.88684738     -12.33903577       1.23983881      -1.33049829      -3.16201275       0.11889258
12
Properties=species:S:1:pos:R:3:molID:I:1:momenta:R:3:energies:R:1:forces:R:3:charge:R:1 Nmols=1 Comp=DMC(1) energy=-588.7769169278121 free_energy=-588.7769169278121 dipole="-0.007706661031847506 -0.30882800525066 0.0026995840217196357" pbc="F F F"
C       -0.19247934       0.06183911       0.00007540        0      -0.39389610       0.35521069       1.24641602     -59.03194983       4.81261466       1.61604458      -0.11018205       0.48626151
O       -1.30729612       0.24146751       0.27900719        0       1.66766911      -0.54312180       0.83572770    -112.05278455      -2.04114604      -0.41901265       0.82738908      -0.38413831
O        0.94306476       0.21289058       0.82395093        0      -3.57966856      -0.76268558       0.07838950    -111.35088452      -1.07570400      -0.08434043       0.12076686      -0.28913743
O        0.37471955      -0.03986561      -1.22019365        0      -0.49895154       0.50884987      -0.96971697    -111.30395026      -2.21981964      -1.42425491      -1.30309035      -0.27265252
C        0.76011717       0.32638198       2.23768648        0      -0.74438330       0.17385701       0.45065410     -58.86126137       2.60977732      -0.87228722       1.27274688       0.04290265
C       -0.53010060      -0.81858121      -2.14822747        0       2.36564087      -0.95173047      -0.40008922     -58.64665028      -0.56523223       1.99967487      -1.21853277       0.01994726
H        0.21850581       1.16086057       2.56981562        0       0.44389630      -0.37878161       0.23265575     -13.04592978      -0.78718798       1.34840778      -0.09368366       0.06504720
H        0.24095726      -0.55385382       2.57393849        0       0.33845653       0.33032021      -0.26487330     -13.05636607      -0.12630684      -0.51092763       0.31526877       0.05758060
H        1.83981419       0.39634771       2.95515890        0      -0.06343858       0.49111374       0.35191233     -12.85913686      -2.48354479      -0.35183009      -2.62345509       0.04798660
H       -1.31735405      -1.17325031      -1.50611083        0       0.16717134       0.26574367      -0.36776756     -12.90037682      -0.28100342      -0.46213204      -0.15579856       0.08256713
H       -1.11102579      -0.31131193      -3.14626938        0       0.89008184       0.28486510      -0.76311418     -12.82160942       1.67459245      -0.19516237       2.80706734       0.05702873
H        0.06756855      -1.55730540      -2.62881596        0      -0.59257790       0.22635918      -0.43019416     -12.84601715       0.48296049      -0.64417990       0.16150354       0.08660657
12
Properties=species:S:1:pos:R:3:molID:I:1:momenta:R:3:energies:R:1:forces:R:3:charge:R:1 Nmols=1 Comp=DMC(1) energy=-588.6474647992258 free_energy=-588.6474647992258 dipole="0.4055274642410964 -0.14894099054189197 0.23797754600700272" pbc="F F F"
C       -0.11507311       0.13170648       0.04508008        0      -0.50662744       0.94752440      -0.60559492     -59.29864427      -6.12389998      -0.97135444      -3.51494392       0.48584842
O       -1.30191839       0.20617384       0.33413365        0      -0.74004867      -0.71882916       0.41508434    -112.65925987       0.80023190      -0.15528240      -1.08801133      -0.47792534
O        0.77385704       0.17161973       0.86626481        0      -0.72003112      -0.53102636       2.07859503    -110.25451183       6.20576003       0.22585313       2.79988492      -0.20050628
O        0.34573045      -0.06130565      -1.28418409        0      -0.28651790      -1.05736407      -0.45939174    -111.51637060       1.61223245      -0.61772045       3.56291597      -0.33030075
C        0.70315291       0.34775495       2.28418490        0      -1.72529198       0.51364855       0.81187536     -59.01736312       0.74791247       1.13509770       0.50730755       0.02910926
C       -0.35666107      -0.83207406      -2.23863438        0       1.91203087      -0.24480886      -1.40705810     -58.99148665      -0.73608182       1.38354914      -1.65697421       0.03253795
H        0.08203456       1.26495673       2.53773696        0      -0.11602209      -0.40174953      -0.50028160     -12.81515341       0.48266377      -1.14299710      -0.23083453       0.08209079
H        0.26110440      -0.58543601       2.71710653        0       0.20440909       0.56995871       0.23205883     -12.75642095       0.56703730       0.92315902      -0.05526756       0.09068342
H        1.83614493       0.59859396       2.61186135        0       0.88159680       0.02024371      -0.32289956     -12.66677555      -2.49262917      -0.89297297      -0.57670623       0.08437709
H       -1.34372607      -1.09144011      -1.82862382        0       0.40220661       0.10441709      -0.52296823     -13.08717388       0.19930121       0.11609227      -0.40877292       0.06484634
H       -0.33389939       0.08089893      -2.88526876        0       0.41509859       0.60719606      -0.20849067     -12.49426344      -1.34240993      -1.45055877      -1.27703706       0.08680577
H        0.07137145      -1.73320119      -2.85308556        0       0.27919724       0.19078946       0.48907127     -13.09004123       0.07988179       1.44713487       1.93843933       0.05243332
12
Properties=species:S:1:pos:R:3:molID:I:1:momenta:R:3:energies:R:1:forces:R:3:charge:R:1 Nmols=1 Comp=DMC(1) energy=-588.6237381198199 free_energy=-588.6237381198199 dipole="0.12737328949057836 -0.10308796421503741 -0.39134475904260607" pbc="F F F"
C       -0.21543859       0.14191933      -0.05471790        0      -0.40491058      -0.22626606      -0.70806223     -59.01547374       1.76441247      -1.44231261       2.49959376       0.47361098
O       -1.33192932       0.16186969       0.33776077        0      -1.09129336      -1.21114112       0.08995343    -112.03992030      -1.07288402       0.45017081      -0.82073959      -0.39381954
O        0.82962538       0.12451114       0.97091668        0       1.23490364      -0.97912177       0.19263702    -111.31120816      -0.54605012      -0.50296076      -3.22502539      -0.30434938
O        0.35846696      -0.12193009      -1.21234536        0       0.40219239      -0.92960475       1.97715251    -111.02326448      -0.37225141       1.05968887       0.08128624      -0.24422984
C        0.65553073       0.43205952       2.29316861        0      -1.49119966       0.70101715      -0.08721782     -58.98216091      -5.07806370      -0.19289946       1.80153106       0.05792291
C       -0.26112316      -0.73141320      -2.37705951        0       0.52020031       0.98107040      -0.92264405     -58.91355841       0.81478430      -2.14133350       1.02466111       0.02618057
H       -0.21568743       1.27921328       2.42803401        0       0.12198473       0.15284405      -0.01347638     -13.10512154       2.20682481      -1.56950808      -0.16555275       0.03685093
H        0.31143432      -0.42488138       3.11749452        0      -0.11834753       0.33226909      -0.06264945     -13.16859670       0.25585013       1.17584727      -2.40390095       0.01627655
H        1.60453951       0.62449168       2.59932094        0       0.35796505       0.67949966       0.74299128     -12.75108339       2.38755508       1.42772709       1.07865254       0.08537069
H       -1.35800373      -0.97136240      -2.28647190        0       0.26950612       0.14070173      -0.30231808     -12.95016064       1.17369994      -0.23234494       0.63617482       0.07364650
H       -0.24391532      -0.18370964      -3.31608726        0       0.24410848      -0.23998146      -0.98626308     -12.86881775       0.79653301       0.50739206       0.34337431       0.08266440
H        0.51840516      -1.65970034      -2.37448618        0      -0.04510958       0.59871308       0.07989685     -12.49437209      -2.33041049       1.46053327      -0.85005517       0.08987522
12
Properties=species:S:1:pos:R:3:molID:I:1:momenta:R:3:energies:R:1:forces:R:3:charge:R:1 Nmols=1 Comp=DMC(1) energy=-588.1155996770332 free_energy=-588.1155996770332 dipole="0.18987502055941946 -0.016211309530043242 -0.2487436793291783" pbc="F F F"
C       -0.22973108       0.06632959       0.01565837        0       0.04338882      -1.31438664       1.64152336     -59.25147764       0.33752021      -0.88939536       1.50977994       0.48202321
O       -1.40425930       0.11923787       0.29156300        0      -1.30712343      -0.77913539      -1.31528842    -112.52180423       1.64095504       0.21102076      -0.43581495      -0.42613028
O        0.85981788       0.05130066       0.92473453        0      -0.54456496      -0.77208044      -1.37980166    -111.58219208      -2.07333276       1.52090009       1.39367292      -0.31538001
O        0.39571970      -0.14209463      -1.11274322        0       0.43475192       0.08276540       0.77986224    -111.07143678      -0.30955973      -0.28530898      -3.09400930      -0.26500690
C        0.58548219       0.54565175       2.34150989        0       0.01259603       1.94585467       0.83441790     -58.64861989      -4.15588255      -1.53574441      -2.53119086       0.02174910
C       -0.19156400      -0.63669272      -2.46383716        0       1.63192900       0.46122229      -0.25788031     -58.35103770       1.01151546      -4.67789766       4.94725873       0.01445191
H       -0.08820952       1.53224876       2.29683703        0      -0.12945911       0.33987247      -0.25878001     -12.91581466       0.14916862      -2.55198217      -0.10725817       0.05974110
H        0.19400287      -0.41442129       2.93911469        0       0.01248572      -0.15395671      -0.14674575     -12.87714996       0.51927023       2.45850096      -1.12707200       0.07367306
H        1.37830385       1.00915741       2.74136011        0      -0.39205110      -0.19240791      -0.43373983     -12.81825300       3.54342607       0.48143878       1.14191478       0.08900834
H       -1.25436178      -0.91731121      -2.25750956        0       0.12798525      -0.10105180       0.16817871     -12.82075124       1.05438155       0.41371185      -0.59581046       0.09673263
H        0.13313377      -0.22140278      -3.31358641        0       0.32734320       0.74785259       0.42040967     -12.64584465       0.41681895       2.83501548      -2.19299157       0.11028924
H        0.53088457      -1.69726283      -2.67081787        0      -0.21728135      -0.26454853      -0.05215590     -12.61121784      -2.13428107       2.01974067       1.09152095       0.05884858
12
Properties=species:S:1:pos:R:3:molID:I:1:momenta:R:3:energies:R:1:forces:R:3:charge:R:1 Nmols=1 Comp=DMC(1) energy=-588.7046222743553 free_energy=-588.7046222743553 dipole="0.2339983597977704 0.04188597516462491 0.2093220121286924" pbc="F F F"
C       -0.22628957      -0.03423201       0.14282005        0       0.21755373      -1.01229339      -0.51006155     -59.27014858      -0.94830458      -0.36170583      -4.25496508       0.48570324
O       -1.41908858       0.07923705       0.20830525        0       0.94468114      -0.76065935      -0.75795733    -112.51329916       0.88216472      -0.10372697       0.95370708      -0.43097821
O        0.79330769       0.05419953       0.90258285        0      -1.60094846       0.52047508       1.63890429    -111.07556486      -0.12393737       1.29083064       3.47619153      -0.24460253
O        0.41975016      -0.19690871      -1.09604183        0       0.04383264      -1.37292577       0.08748370    -111.31747534       0.60282001      -0.78464643       0.75299303      -0.33230346
C        0.53397321       0.67424596       2.26255690        0       0.30951088       0.48328987      -2.01308663     -58.85734950      -1.26344258      -2.90536782      -0.54961409       0.00560187
C       -0.02934630      -0.59278810      -2.39500013        0       1.43937359       1.76479609       1.76498796     -58.96530748      -4.13654524      -3.16662373       2.72069776       0.02677704
H       -0.37939167       1.33655245       2.18403342        0      -0.43970098       0.13614584      -0.02456746     -12.77276531       1.60730736      -0.14386666       0.08233598       0.09557467
H        0.13499554      -0.23203820       2.92911973        0      -0.04910320      -0.04883201       0.33390736     -12.83280603       1.04175751       1.68090604      -1.00145079       0.06907248
H        1.55583324       0.96333329       2.53686472        0      -0.90942765      -0.00973415      -0.41440405     -12.60447058      -0.94130884       0.44173911       0.19990360       0.11275280
H       -1.21416134      -0.59944029      -2.37359559        0      -0.14986370       0.81400416      -0.12977671     -13.07446875       1.47271282      -0.20876232       0.18855919       0.03559487
H        0.12117479       0.29349348      -2.86004971        0      -0.15400257      -0.13003663       0.34417807     -12.52164880       1.39078239       1.51279872      -2.74002417       0.10836114
H        0.18486865      -1.73886269      -2.64292712        0       0.34809457      -0.38422974      -0.31960765     -12.89931789       0.41599380       2.74842525       0.17166594       0.06844608
12
Properties=species:S:1:pos:R:3:molID:I:1:momenta:R:3:energies:R:1:forces:R:3:charge:R:1 Nmols=1 Comp=DMC(1) energy=-589.0320259082943 free_energy=-589.0320259082943 dipole="0.2615403056254212 -0.056441319625530464 -0.4244936494857445" pbc="F F F"
C       -0.20834131      -0.10112108      -0.01256562        0       0.42360735      -0.79923568      -1.88543274     -59.19244201      -0.38595804       1.53414312       4.03038112       0.48818990
O       -1.36856680       0.02627349       0.15189634        0       0.70304545      -0.74226208      -0.85698186    -112.34944243      -1.72476846      -0.08260703       0.05597052      -0.43238734
O        0.71916281       0.10907120       1.02733402        0      -0.60501528       0.48038814       1.25591468    -110.85178710       1.55242464      -2.77204000      -5.64562475      -0.26936869
O        0.47132995      -0.27679734      -1.03003289        0       1.86685093      -1.51027836       1.18223974    -110.24860535       3.40175972      -0.58279458      -1.80770336      -0.18905217
C        0.42358998       0.63155348       2.13922129        0      -1.07361788       0.04318933       0.34689590     -59.19205610       0.14591899       4.95014549       6.27372658       0.08261237
C       -0.02330090      -0.47060998      -2.28258384        0      -0.80114849       3.34756640       0.00905383     -59.29643260      -0.30650188       1.02945470      -2.71542668       0.02443274
H       -0.43514798       1.34464530       2.14268587        0      -0.42501346       0.25276218      -0.23490501     -13.23191966       0.03691073      -0.67935097      -0.03491410       0.03013622
H        0.40255528      -0.00641074       3.00794365        0       0.34412440      -0.20768394       0.43971290     -13.13210957      -0.82148167      -0.98442247       0.20623472       0.03460930
H        1.31366023       1.35312826       2.56898077        0      -0.76333872       0.15320206      -0.21168860     -13.11020619      -1.21449501      -0.97837113      -1.46869200       0.00754328
H       -1.10855139      -0.40789483      -2.36350849        0      -0.47202418      -0.16530233       0.00484929     -12.94225947       0.03920309      -0.24869250       0.10996677       0.07592733
H        0.43457037       0.23575348      -3.02195941        0       0.32859230      -0.48629913       0.29476526     -12.76847308      -0.53164477       0.78699510       0.84535761       0.06692624
H        0.43143380      -1.31042634      -2.73783780        0       0.47393757      -0.36604659      -0.34442338     -12.71629234      -0.19136734      -1.97245971       0.15072356       0.08043083
12
Properties=species:S:1:pos:R:3:molID:I:1:momenta:R:3:energies:R:1:forces:R:3:charge:R:1 Nmols=1 Comp=DMC(1) energy=-589.137669201136 free_energy=-589.137669201136 dipole="0.09384048711332864 0.07141359332212965 0.01745226549331323" pbc="F F F"
C       -0.19024124      -0.12434259       0.03032952        0       1.05750334      -0.15460441       2.07830737     -59.24522239       2.32549643       0.80839642      -0.27594730       0.48490352
O       -1.36925833      -0.00344688       0.09087690        0      -0.44408907      -0.29234925      -1.02577481    -112.48778573      -0.28194902      -0.26809847      -0.25812716      -0.42449819
O        0.70994559       0.10895046       0.98803768        0      -0.15513313       0.00620738      -0.86567028    -111.34825294      -0.21775408       0.36359315       1.46128328      -0.29571210
O        0.62627041      -0.36787754      -1.04822778        0       2.32799911      -1.42957106      -0.62551753    -111.35603688      -1.73827103       0.34921804       0.75366654      -0.28764899
C        0.28043387       0.69988413       2.30342849        0      -1.86531075       1.29443965       1.52478049     -58.82612771       0.55077653       3.75991086      -4.81062661       0.00858172
C       -0.02512794      -0.35740450      -2.32071674        0       1.31773592      -0.12238257      -1.01203969     -59.13444173       1.31175822       1.82164081       0.43179315       0.01253390
H       -0.78169954       0.96411256       2.05338647        0      -0.59904364      -0.48073779      -0.00654739     -12.78611633       0.82841407       0.11836174       0.96087094       0.09214928
H        0.41855342      -0.04659836       2.95916677        0       0.01273743       0.17071037      -0.12675430     -12.74822538       0.44345050      -1.92696088       2.52993732       0.10137821
H        1.02969024       1.70419056       2.39578805        0      -0.11446347       0.06692487      -0.00122378     -12.71514885      -2.07403514      -2.63319200       0.09045002       0.07548739
H       -1.08473448      -0.42334607      -2.22385491        0      -0.20439405       0.48894388       0.12561954     -12.84772645      -1.06369564       1.65518345       0.22982038       0.08083517
H        0.53196880       0.45341565      -2.93471231        0      -0.67988937       0.14463153       0.01292250     -12.88827421      -1.52081467      -1.30558226       0.75877400       0.07507131
H        0.08710521      -1.31484042      -2.64621625        0      -0.65365231       0.30778739      -0.07810211     -12.75431060       1.43662384      -2.74247085      -1.87189455       0.07691880
12
Properties=species:S:1:pos:R:3:molID:I:1:momenta:R:3:energies:R:1:forces:R:3:charge:R:1 Nmols=1 Comp=DMC(1) energy=-588.615504843323 free_energy=-588.615504843323 dipole="-0.008200389202351872 0.27202848732662605 0.35764034963878044" pbc="F F F"
C       -0.13400990      -0.11135002       0.08836388        0       0.06668457       0.08642362      -1.06551132     -58.95034833       1.19599498      -0.44132285      -2.88577630       0.47651605
O       -1.32688051      -0.03502730       0.03780722        0       1.59724548      -0.56154046      -0.82348025    -112.41736444       0.86993602      -0.04619630       0.16933893      -0.40909385
O        0.71488283       0.11612452       1.02763492        0       0.22820380       0.78414638       2.56376807    -111.00921069      -0.92482261       0.98221526       2.91401897      -0.23006170
O        0.72258986      -0.43396743      -1.09176694        0       0.90114479      -1.18984600      -0.74290172    -111.66913121      -1.93303531       0.78863347       0.40622901      -0.32286216
C        0.12040668       0.74227858       2.30596744        0      -1.34380493      -1.08740904      -0.49677557     -58.61025402       4.06229553       1.80053632      -1.49306429       0.00767261
C       -0.02661452      -0.35570480      -2.33187538        0      -1.36218165      -0.05360914       0.17919994     -58.90456273      -0.95545523       1.80353848      -0.37099922       0.02237642
H       -0.91239868       0.70438179       2.30508363        0      -0.54231526       0.03551717       0.22494403     -12.73212297      -1.87937736       0.65802218      -0.67628019       0.10451594
H        0.39658835       0.22331588       3.19079704        0      -0.14449135       0.64728655      -0.17394366     -12.79150921       0.84865827      -0.89766510       0.36183491       0.08997739
H        0.72279448       1.83893723       2.40463352        0      -0.17495560       0.56819894       0.02046061     -12.60519348      -2.01771499      -2.57422664      -0.49022902       0.08342325
H       -0.93932442       0.11715234      -1.97082716        0       0.44280451      -0.04195982       0.20625428     -12.76115142      -1.25997790      -1.29479737      -0.00035891       0.07527435
H        0.06633985       0.52331468      -3.10087642        0       0.28199466      -0.10201830      -0.03782790     -13.00783236       1.90570030      -1.28003091       1.12011794       0.04273214
H       -0.12103877      -1.28852147      -2.92256332        0       0.04967099       0.91481010       0.14581348     -13.15682398       0.08779829       0.50129345       0.94516817       0.05952956
12
Properties=species:S:1:pos:R:3:molID:I:1:momenta:R:3:energies:R:1:forces:R:3:charge:R:1 Nmols=1 Comp=DMC(1) energy=-588.8129056177054 free_energy=-588.8129056177054 dipole="0.08302390612249295 0.2208560195979866 -0.12942150039418698" pbc="F F F"
C        0.01421768      -0.13830248      -0.03367972        0       2.84961443      -0.77594625      -0.39657066     -58.91209197      -1.99662457       0.22750373       2.74636661       0.46371219
O       -1.21814395      -0.08165378       0.03043797        0       1.92015282      -0.26827069       0.33921241    -112.51132178       2.11003658       0.01036221      -0.54628734      -0.44864773
O        0.70005696       0.14994513       1.17701562        0      -0.97038836      -0.42865274       1.48673524    -111.26470900       0.41756527      -0.99541738      -3.11249564      -0.27743117
O        0.70686855      -0.46916884      -1.13445795        0      -1.52497180       0.10777375      -0.09319605    -111.29978839      -1.21718166       0.25754670       2.33024349      -0.24959380
C        0.00507295       0.72442617       2.24946014        0      -1.57913687      -0.36813135      -0.39562846     -59.17734562       1.71983243       1.35863226      -0.30839593       0.02224547
C       -0.12304094      -0.25096511      -2.28327463        0      -0.72567166       1.75172429       0.27639699     -58.93795447       1.05958268      -1.78335236      -1.82210507       0.01285329
H       -0.99875292       0.85008766       2.13394519        0       0.11534852      -0.51424334      -0.52487439     -12.71463510      -3.37002305      -1.87354523      -0.08942678       0.08785251
H        0.43536027       0.33864672       3.15526659        0      -0.17970317      -0.36416573      -0.57240448     -12.92289802      -0.31884984      -0.24775912       0.24586743       0.08017403
H        0.09220320       1.80988102       2.20710863        0      -0.00132997       0.78801975      -0.49855112     -12.87365345       1.74750789       0.83996990       0.18307227       0.05206485
H       -1.18855866      -0.01104431      -1.98119439        0      -0.04417758      -0.19171375      -0.56874547     -12.67201718       1.54007629       0.49960952      -0.61045649       0.10769261
H        0.67381327       0.38481351      -2.78443103        0       0.35382302       0.00766791       0.38839391     -12.55603226      -2.11315197      -0.00749325      -0.44224317       0.09438498
H       -0.22970526      -1.25102412      -2.93595053        0      -0.21355937       0.25593813       0.55923208     -12.97045838       0.42122997       1.71394302       1.42586061       0.05469277
12
Properties=species:S:1:pos:R:3:molID:I:1:momenta:R:3:energies:R:1:forces:R:3:charge:R:1 Nmols=1 Comp=DMC(1) energy=-588.2080920011203 free_energy=-588.2080920011203 dipole="0.05284056219388862 0.16482047252766752 -0.11979747801527449" pbc="F F F"
C        0.08161171      -0.14822981       0.03615891        0       0.36803895       0.19520014       1.68651775     -59.35271515       2.28883260       0.41425445       0.62220310       0.50591765
O       -1.06313905      -0.09505771       0.04612788        0      -0.00505634      -0.19051324       0.44938256    -111.93833111      -7.89100831       0.25862868      -0.20278886      -0.45979395
O        0.69343353       0.11600092       1.18723031        0       1.03641286      -1.12484620      -1.12066720    -111.48837410       3.40691085      -0.16145747      -1.38908154      -0.31743627
O        0.64157383      -0.43720123      -1.09846782        0      -0.06961591       0.83794082       0.57773157    -111.04872839       2.58554374       0.87140184      -0.81414081      -0.25980115
C       -0.14677666       0.75139549       2.16544557        0      -2.27605829      -1.15928846      -1.14676944     -59.00364910      -0.02944578      -5.49228260      -0.19789338      -0.00757523
C       -0.10939927      -0.18898025      -2.28971631        0       0.74100207      -0.45771008      -0.86664939     -58.79801841      -0.59000231      -1.47692482      -2.53064226       0.04078301
H       -1.04531259       0.21397269       1.86938225        0       0.45147494       0.04371618       0.30164634     -12.38767486      -1.37866211       1.83140511       0.31619199       0.12072782
H        0.12637105       0.13588679       3.00309821        0      -0.39811956       0.51232752      -0.08707439     -12.83089735       0.41776464       0.36510869       1.38981069       0.07130464
H        0.18119298       1.69620549       2.21562819        0       0.08574002       0.35398508       0.57015840     -12.81072853      -0.03781465       3.31726441       0.21455516       0.09487400
H       -1.22986681       0.13759573      -2.31538415        0       0.28391700       0.56992322       0.19729688     -12.87577781       2.02420789      -0.39556470       1.03398441       0.07642471
H        0.44404041       0.53669073      -3.04755387        0      -0.51753734       0.14219809      -0.58074014     -12.94460600      -0.69026101      -1.48118314       1.76341087       0.06242899
H       -0.11688827      -1.28899556      -2.68843585        0       0.29980160       0.27706691       0.01916706     -12.72859120      -0.10606554       1.94934955      -0.20560936       0.07214578
12
Properties=species:S:1:pos:R:3:molID:I:1:momenta:R:3:energies:R:1:forces:R:3:charge:R:1 Nmols=1 Comp=DMC(1) energy=-587.9088738424039 free_energy=-587.9088738424039 dipole="-0.010000508040610551 0.20774554359741185 0.04004916779286323" pbc="F F F"
C        0.06577677      -0.14934966       0.06588316        0      -1.46271774      -0.46250424      -1.27856605     -59.11980507      -1.50359865       0.28198471      -1.10324915       0.48300290
O       -1.16224552      -0.07155924       0.07183302        0      -1.54077803       0.30869808       0.20983685    -112.61880379       1.37435164      -0.31162768      -0.34828381      -0.46401616
O        0.80552912       0.11346554       1.15439327        0       1.64198656       1.03331083       0.65090156    -111.30781831      -3.20485695       0.52281208       0.35149164      -0.24455284
O        0.71407031      -0.37581081      -1.08646334        0       2.40705835       1.24455094      -0.02611001    -111.42872161       1.30946715      -0.26371024      -0.36151167      -0.28526606
C       -0.20846785       0.66319537       2.11345396        0      -0.41222840      -1.26477383       0.38443369     -58.36122722      -0.45496369      -3.93463521       3.47439985       0.02391952
C       -0.08771874      -0.23800642      -2.33408321        0      -0.34823256      -1.33261217       0.60573558     -58.55980393      -0.99834140      -0.89334021       0.97580039       0.00473171
H       -1.36198973       0.53188684       2.08711820        0       0.24267011       0.62831998       0.12770852     -12.58764101       1.95689746      -0.84022327      -1.06074506       0.09364186
H       -0.01623532       0.29197497       3.22114210        0      -0.02106880      -0.08092053      -0.50149928     -12.92727773       0.36083233      -0.10274113      -2.05155793       0.05373949
H       -0.18048441       1.64203390       2.27739551        0      -0.61168672       0.02359604      -0.54448105     -12.79643449       1.11030820       4.33200311      -0.33509579       0.08147424
H       -0.92155015       0.28226072      -1.65181942        0      -0.12052335      -0.18232055       0.46183840     -12.21241420       0.10489518      -1.03606105      -3.16834240       0.12781723
H        0.38860849       0.36287849      -3.16316192        0       0.75122871       0.25892423      -0.11510333     -13.03550323      -0.16349085      -0.29062903       1.59298428       0.07035532
H       -0.28247677      -1.32905423      -2.90327537        0      -0.52570812      -0.17426878       0.02530512     -12.95342326       0.10849958       2.53616792       2.03410963       0.05515279
12
Properties=species:S:1:pos:R:3:molID:I:1:momenta:R:3:energies:R:1:forces:R:3:charge:R:1 Nmols=1 Comp=DMC(1) energy=-588.1678809631832 free_energy=-588.1678809631832 dipole="-0.12633286430330642 0.08204897911048734 -0.35790732960144134" pbc="F F F"
C        0.00546820      -0.12909451      -0.03912818        0       0.34826155       0.47966932      -0.55342501     -58.71680747       1.26051935       0.44754032       3.07062052       0.46352463
O       -1.20801513      -0.09574574       0.09559511        0       0.18939516      -1.04071670      -0.12755111    -112.31739137       1.96583361      -0.73425569      -2.72511133      -0.41446804
O        0.77909390       0.18106929       1.15708591        0      -2.72428808       0.49870742      -1.23290738    -111.68922617      -2.64258495      -0.55623822      -2.10564024      -0.31153483
O        0.81857119      -0.35096792      -1.08908199        0       0.32002320       0.21497939       0.44644776    -111.36600836      -4.14675434       0.09259591       1.20461358      -0.24662425
C       -0.18023703       0.64093754       2.14131821        0       0.79113603       1.02802976      -0.36509726     -58.80619386       0.14506238      -0.04905907       0.80550053       0.00842340
C       -0.09841185      -0.31156250      -2.25974677        0       0.37975448      -0.43589795       2.33027306     -58.72941691      -2.73150554      -1.29248624       1.85557407       0.00129912
H       -1.26231273       0.40793285       1.70515613        0       0.32587130      -0.56169630      -0.20741406     -12.57284095       2.11492451       0.16452488       1.91296478       0.10509010
H        0.11625694       0.02656242       3.18071364        0      -0.14766611       0.23983032       0.09823200     -12.93003677      -0.90267998       2.13800488      -2.47890408       0.06037446
H       -0.11572932       1.79637300       2.03480626        0       0.39257407      -0.72787105       0.44641298     -13.01498147       0.14755794      -1.73774825       1.26270813       0.05594301
H       -1.11408734       0.26626469      -2.09111960        0      -0.31851674       0.70299206      -0.42981411     -12.82303532       1.91017486      -0.64858162       0.32508773       0.07235607
H        0.51848143       0.30651468      -2.77114958        0       0.36940510       0.32027296      -0.46965180     -12.41161807       1.28028606       0.93710495      -3.10444283       0.11849417
H       -0.54399639      -1.33211390      -2.53576472        0       0.07405003      -0.71829922       0.06449494     -12.79032426       1.59916607       1.23859815      -0.02297086       0.08712216
12
Properties=species:S:1:pos:R:3:molID:I:1:momenta:R:3:energies:R:1:forces:R:3:charge:R:1 Nmols=1 Comp=DMC(1) energy=-587.9154820485822 free_energy=-587.9154820485822 dipole="0.21084675790704047 0.1844586358544267 -0.05503492369639139" pbc="F F F"
C        0.02123664      -0.09285196       0.02349483        0      -0.79357602       0.22098923       1.10713926     -59.36827181      -2.96265507      -1.09552291      -1.60476396       0.49568293
O       -1.18083926      -0.18423337       0.02251445        0       0.20544395      -2.14585242      -1.96825409    -112.66889106      -0.94338377      -0.04869758      -0.68063539      -0.48926962
O        0.65028755       0.21374933       1.06161476        0      -0.53471575       0.64405335      -0.58339623    -110.69473499       3.77967744       1.16138526       2.92277874      -0.21416827
O        0.74455510      -0.35186232      -1.05178283        0      -1.76381768       0.24473463       0.87549537    -111.19662330       1.40896506       1.13461105       1.28769964      -0.26430092
C       -0.09732757       0.69149225       2.12483771        0       1.50425406       1.55721481       0.43184603     -58.55124237      -1.67412422       0.05541064       4.80854676       0.03739850
C       -0.05584090      -0.30239491      -2.17144303        0       2.10515156       0.89439010      -0.52512657     -58.86645668       3.14418540      -4.36290557      -2.10543885       0.02152295
H       -1.19739798       0.21344866       1.97142836        0      -0.32417835       0.31170648       0.55413739     -12.56483376       1.94970245       2.01064836       0.31233545       0.09554036
H        0.15808762       0.24843585       3.28874952        0       0.32939709      -0.27064066       0.21731885     -12.95900346       0.08972956       0.27989565      -3.12742474       0.03381168
H        0.11106876       1.85266918       2.43538124        0      -0.27292977      -0.19061571      -0.07452777     -12.85935141      -0.99037940      -2.39656986      -1.66058119       0.06146695
H       -0.72995051       0.41255548      -2.26232743        0      -0.33306897       0.29358835       0.15571051     -12.83608885      -3.75869742       2.24636075       0.50187493       0.08553933
H        0.51967004      -0.16306472      -3.03749041        0      -0.02046673      -0.87871749      -0.03906003     -12.75591970       2.36597795       1.71357136      -1.36041115       0.06061087
H       -0.10279803      -1.34737917      -2.48284326        0      -0.10149339      -0.68085067      -0.15128272     -12.59406465      -2.40899798      -0.69818715       0.70601975       0.07616523
12
Properties=species:S:1:pos:R:3:molID:I:1:momenta:R:3:energies:R:1:forces:R:3:charge:R:1 Nmols=1 Comp=DMC(1) energy=-588.4219645370924 free_energy=-588.4219645370924 dipole="0.07211773232832235 0.19071358761471882 -0.021538640628942764" pbc="F F F"
C       -0.07327614      -0.09533148       0.02955791        0      -0.83089744      -0.01748977      -0.79733178     -59.41775645       0.59241994      -0.29166940       0.31179824       0.48653569
O       -1.23950540      -0.29205901      -0.08781498        0      -2.19181930      -1.47455392      -0.70636575    -112.52284809      -1.61928331       0.55476934       1.19388177      -0.45703543
O        0.65768422       0.28543246       1.09792154        0       0.16661618       1.52293850       0.61086787    -111.44731641      -1.45025809      -0.29198705      -1.90805480      -0.28566141
O        0.71351599      -0.33944927      -0.97603887        0       0.67306993       0.22455074       0.55991961    -111.10442716       1.88529102       0.53233310      -1.76321462      -0.27382237
C       -0.03937846       0.71452217       2.25181927        0       0.33474204       0.15747745       1.26907678     -58.80206750       0.41686912       2.57327045      -0.22095117       0.02636916
C        0.07151185      -0.32615236      -2.29121201        0       0.81117002      -1.77693266      -2.08551987     -58.88967455      -0.99401192      -4.50083994       3.57101860       0.00272062
H       -1.18488771       0.71113820       2.21788793        0      -0.36253668       0.10415464       0.07193676     -12.89943401       1.66262212      -1.30878681       0.18071565       0.07929797
H        0.67848821       0.09195277       2.89457227        0       0.84373907      -0.22825064       0.48258753     -12.36052381      -2.02939316       1.71545320       0.74280343       0.11361035
H        0.03397710       1.99578137       2.18158180        0       0.37186373       0.04384803       0.17866774     -12.86086023       0.59972881      -2.99196286       0.90535497       0.03757313
H       -0.74722867       0.23612186      -2.22350610        0       0.20336577      -0.13633548      -0.09009145     -12.65337487      -2.45972058       3.84492226      -0.30153550       0.09564047
H        0.80254221      -0.25775895      -2.98152338        0       0.19448643       0.38206232       0.23631570     -12.77081396       1.77474242       0.24826980      -2.05435936       0.10306713
H       -0.59879128      -1.26545664      -2.28478661        0      -0.21379973       1.19853081       0.26993687     -12.69286749       1.62099363      -0.08377208      -0.65745722       0.07170469
12
Properties=species:S:1:pos:R:3:molID:I:1:momenta:R:3:energies:R:1:forces:R:3:charge:R:1 Nmols=1 Comp=DMC(1) energy=-588.3807256098868 free_energy=-588.3807256098868 dipole="0.07273213090143862 0.20760309058618928 0.048328640133907745" pbc="F F F"
C       -0.14413957      -0.11114165       0.00249375        0      -1.17658150      -0.37643550       0.47986134     -59.02048082       0.25927320      -0.37475260       0.42821978       0.46942692
O       -1.33748846      -0.36612954      -0.09202719        0       0.01203581      -0.68650821       0.71261333    -112.50199549       2.72724054       0.98479589       0.85275306      -0.41908071
O        0.63575592       0.33995597       1.06966638        0      -0.80833434       0.42268324      -1.51758839    -111.27504609      -1.38693393      -0.27403042      -0.08016241      -0.27059261
O        0.77238967      -0.29449215      -0.99824387        0       0.42836084       1.08558924      -1.00595505    -111.38839528      -2.29982851      -0.22531950      -0.85330901      -0.27643773
C        0.04904823       0.73807945       2.34552230        0       1.55602972       0.15558519      -0.20603677     -58.94320650       0.51547453       1.92067536      -0.85261031       0.01941635
C        0.10476875      -0.40522257      -2.33998222        0      -0.78363911       0.71858044       0.87343390     -58.53905750      -3.57757699       2.72927413       3.09742937       0.01522800
H       -0.95351650       0.37589125       2.36069487        0      -0.20911286      -0.57201302       0.28279144     -12.88045839      -1.21462048       0.88491905      -0.37588954       0.08055617
H        0.40201019       0.32556022       3.23529739        0      -0.32085677      -0.32776560       0.71085479     -12.87131851       1.70332112      -1.88625779       0.89422958       0.07117791
H        0.34662059       1.85140361       2.65030716        0      -0.08428141       0.43780279       0.43029478     -12.84474319      -1.34985579      -1.57736581      -1.61370873       0.06353979
H       -0.43503975       0.73611113      -2.43446595        0       1.02507529      -0.33430428      -0.19697396     -12.85569963       0.11587622      -2.60907262       0.51954334       0.03528113
H        0.80363130      -0.09899017      -3.01528042        0      -0.28243299      -0.46637734      -0.15492405     -12.55369769       2.09638068      -1.18716610      -1.90426646       0.11312863
H       -0.77026193      -1.21418848      -2.38296360        0       0.64373732      -0.05683694      -0.40837136     -12.70662652       2.41124941       1.61430042      -0.11222867       0.09835614
12
Properties=species:S:1:pos:R:3:molID:I:1:momenta:R:3:energies:R:1:forces:R:3:charge:R:1 Nmols=1 Comp=DMC(1) energy=-588.0928623553563 free_energy=-588.0928623553563 dipole="0.07594521900393619 0.13553696250705005 0.18934220745317287" pbc="F F F"
C       -0.15425012      -0.13622262       0.03192615        0       1.26130835       0.29076735      -0.08141846     -59.04172798       1.33965844       0.59308802      -0.33674556       0.47791918
O       -1.31369178      -0.39949785      -0.01978007        0       0.47518160      -0.52429311       1.45874462    -112.30383368       0.07890223       0.13698021       0.56899443      -0.40799605
O        0.60434267       0.37329786       1.02139965        0      -0.84886940       0.73723015      -0.48578374    -111.31515148       0.37952432      -0.10097763      -0.27050971      -0.29033225
O        0.71287368      -0.23751829      -1.05254392        0      -1.87424058       1.18237413      -0.03202338    -110.97391538      -0.29215403      -0.04632786       2.58366104      -0.23805247
C        0.08620974       0.72346814       2.36347974        0      -1.01042067      -1.23896381      -0.18487906     -59.01146185      -0.30490709       0.81547963      -4.02050845      -0.00958664
C        0.13209449      -0.36500672      -2.23838414        0       2.04076102      -0.11838152      -0.63882113     -58.65866916      -0.35816904      -0.94587794      -7.10204231       0.06615330
H       -0.89938819       0.58308061       2.15215398        0      -0.12971810       0.25122157      -0.47707396     -12.61279941      -3.64969034      -1.63676921       0.42674396       0.08795057
H        0.50896417       0.03635296       2.99143677        0       0.62612871      -0.49718009      -0.50086613     -12.70833636       1.07674197      -0.60812233       1.91817819       0.10713849
H       -0.03508968       1.78951564       2.36783559        0      -0.14067430       0.52667380      -0.32913437     -12.61513869       1.76439002       0.81587170       0.95595981       0.09826939
H       -0.32690019       0.72232395      -2.71345221        0      -0.28987948      -0.25329247      -0.17690305     -13.12803924       0.94400637      -2.95834176       1.25941732       0.02201779
H        0.93923380      -0.79266105      -3.06642928        0       0.15150363      -0.36323354       0.92111821     -12.83485158      -0.38034840       2.06587703       1.82428446       0.03787024
H       -0.46925659      -1.31298740      -2.61481312        0      -0.26108076       0.00707755       0.52704045     -12.88893756      -0.59795443       1.86912012       2.19256682       0.04864845
12
Properties=species:S:1:pos:R:3:molID:I:1:momenta:R:3:energies:R:1:forces:R:3:charge:R:1 Nmols=1 Comp=DMC(1) energy=-588.1568269002486 free_energy=-588.1568269002486 dipole="0.22078557139285032 0.13101140064108172 -0.06375884127231143" pbc="F F F"
C       -0.11244901      -0.11263143       0.01054843        0      -0.77874704       0.83641291      -0.13727997     -59.53647898      -0.75056574       0.63080058       1.50175377       0.49223181
O       -1.25666234      -0.43796773       0.06617002        0       1.28257031      -0.88526628       0.94666285    -112.67593228      -1.13480505      -0.34556206      -0.01576169      -0.46901590
O        0.58268948       0.42146406       1.02366424        0       0.02897379       0.99964561      -0.12331853    -111.18448419       0.24561802      -0.62949268      -2.22050922      -0.28715073
O        0.66085782      -0.16405011      -0.99713133        0       0.65884964       1.99571175       1.08544302    -111.14898014       2.66533867       1.28736710      -1.90558343      -0.28231393
C       -0.04921745       0.69413096       2.22630747        0      -2.29583353      -0.51004287      -2.15327241     -59.22244631       2.21991503       0.15814761       0.57021904       0.01536600
C        0.22501175      -0.45357921      -2.35750871        0       0.10892250      -2.43234057      -0.12502463     -58.62505837      -2.14951167      -0.37072437       2.11232133       0.00194667
H       -1.05039419       0.41029526       2.32265192        0       0.40385677      -0.30861812       0.51148094     -12.99104714      -1.18686004      -0.06914186       0.04185973       0.08623167
H        0.66280802       0.26194638       2.87460998        0      -0.20619276       0.45281527       0.45617774     -12.67220383       0.05802333      -1.98487452       1.79178413       0.07263785
H        0.33539488       1.65380247       2.42211853        0       0.50298745      -0.33208649       0.24377770     -12.65534720      -1.20641909       2.42889965       0.09709086       0.08018236
H       -0.47155868       0.43364181      -2.81987736        0       0.17298635       0.25320744      -0.49579315     -12.73962194       2.86837807      -1.19485364       0.37566577       0.07295912
H        1.29740652      -0.93588642      -2.65777031        0      -0.07765266      -0.13073050      -0.26486427     -12.29680559      -3.30426641       1.04653567      -0.53485727       0.12071441
H       -0.74909174      -0.99518490      -1.96587648        0       0.19927918       0.06129185       0.05601072     -12.40842094       1.67515488      -0.95710147      -1.81398303       0.09621067
12
Properties=species:S:1:pos:R:3:molID:I:1:momenta:R:3:energies:R:1:forces:R:3:charge:R:1 Nmols=1 Comp=DMC(1) energy=-588.1562715531534 free_energy=-588.1562715531534 dipole="0.10658252481722752 0.06829748619809634 -0.029254130357415167" pbc="F F F"
C       -0.15276909       0.00641042       0.01543600        0       0.14313128       1.54709148      -0.39128910     -59.15344078      -0.42469262      -2.48930526      -1.10030016       0.47776675
O       -1.26158387      -0.50034426       0.14525639        0      -0.45411415      -0.69453516       1.12414336    -112.73424572       2.14222098       1.32386029      -1.15954088      -0.44999291
O        0.59306305       0.46753685       0.96719937        0      -0.17217057       0.48402083      -0.13150721    -110.72900719      -0.26260666       0.98853411       2.13651720      -0.21671586
O        0.75578096      -0.03685104      -1.02544826        0       1.38467472       1.88061310      -1.79433219    -111.36827279      -2.18088052      -1.64573862      -1.46588918      -0.27500598
C       -0.07842588       0.66589524       2.19907542        0       0.46247033      -0.77077822       1.92067254     -59.05144879      -0.20851184      -2.09269594       1.91214862       0.01455329
C        0.20017137      -0.57352534      -2.27787168        0      -0.02550699      -1.75861810       1.37377678     -58.43066933       0.85191064      -1.89098883      -2.80823894       0.01732322
H       -1.06182003       0.22342645       2.31731735        0       0.01996427       0.21767837      -0.93610429     -12.76441112      -1.10843287       0.53598824      -1.57250137       0.07903359
H        0.24324958      -0.02010515       3.03619555        0      -0.32987257      -0.36773134      -0.63433308     -12.80147134       1.58323337       0.91122651      -0.61630428       0.06636551
H       -0.09582003       1.68264073       2.48651685        0      -1.18330656       0.05604989      -0.07927517     -12.94903752       0.23920189       0.89954249       0.21775298       0.07653367
H        0.21273316       0.29440699      -3.00283048        0       0.25355712       0.16033491      -0.19233508     -12.73382367      -1.70202973      -0.60191668       1.18676412       0.08072006
H        0.77692975      -1.25660811      -3.12360961        0      -0.04109494      -0.49548373       0.02555337     -12.75231123       1.07515390       1.07448157       2.59078706       0.04430518
H       -0.52827335      -1.50103635      -2.20534931        0      -0.05773193      -0.25864204      -0.28496994     -12.68813207      -0.00456653       2.98701210       0.67880485       0.08511350
12
Properties=species:S:1:pos:R:3:molID:I:1:momenta:R:3:energies:R:1:forces:R:3:charge:R:1 Nmols=1 Comp=DMC(1) energy=-588.0358591424966 free_energy=-588.0358591424966 dipole="-0.023113196893001578 0.07943530213258933 -0.15118632256907846" pbc="F F F"
C       -0.15399376       0.04951412      -0.04207757        0       0.64483436      -0.47867632      -0.36583858     -59.02893526       2.81627753      -0.96049003       0.74422410       0.47301789
O       -1.21897181      -0.48434347       0.15555201        0       1.30179447       1.33541096      -0.72509646    -112.47335017       0.37762609       0.62088740      -1.91366487      -0.42273688
O        0.59569294       0.52626744       0.98093825        0       0.06639354       1.08800176       0.13015639    -111.30135204       0.16110683       1.17003284       0.39280647      -0.28885839
O        0.72090619       0.02520958      -1.11888696        0      -2.21653866       0.22173918      -0.45333695    -111.48771031      -2.55215711       0.20843856       2.50023234      -0.29185162
C       -0.12314694       0.57293273       2.28863171        0      -1.45068121      -1.27543431      -0.88668667     -58.81668350      -0.51105604      -2.83406746      -3.36150548      -0.02672005
C        0.25981810      -0.72115158      -2.25296428        0       1.01151723      -1.15131162       0.61190811     -59.01098297      -2.06484816       2.20677539       0.63779430      -0.00065628
H       -1.06409460       0.34082822       1.68173214        0       0.39548909      -0.33044352       0.46714849     -12.15975132      -0.20421881      -1.27610959       2.64397049       0.12152057
H        0.40596304      -0.13435290       2.97998070        0       0.06143055       0.26252731       0.19109116     -12.95633936      -1.04548285       0.79165443      -0.73452179       0.08322128
H       -0.45678275       1.48071666       2.61973136        0       0.30518338      -0.04904499       0.46670955     -12.94649926       0.79565201       2.64572604       1.09533725       0.07902029
H       -0.05235364       0.10851848      -2.91619303        0      -0.24712527      -0.05567500      -0.35430427     -12.81252088       1.36384077      -0.37125985      -1.08060393       0.06735316
H        1.22582634      -1.24881166      -2.37292690        0       0.38084801      -0.06315460       0.58252955     -12.43952587      -1.68561261      -0.64078396      -1.06572941       0.11993278
H       -0.89800910      -0.94483619      -2.05546710        0      -0.25314550       0.49606115       0.33571970     -12.60220820       2.54887235      -1.56080376       0.14166054       0.08675724
12
Properties=species:S:1:pos:R:3:molID:I:1:momenta:R:3:energies:R:1:forces:R:3:charge:R:1 Nmols=1 Comp=DMC(1) energy=-588.867496830595 free_energy=-588.867496830595 dipole="0.25207970766531357 -0.21185728650059504 -0.11055869218389965" pbc="F F F"
C       -0.05345140       0.00707845      -0.01833809        0       1.14216311      -0.06901871       1.56579747     -59.42835984      -1.47851201       1.12820451       2.03376357       0.49527123
O       -1.17143609      -0.38269946       0.06241485        0       0.35861754       1.17625504      -1.56348088    -112.52218029      -1.63170166      -1.28312792       0.37807815      -0.46835419
O        0.56905475       0.63755652       1.02245273        0      -1.52570430       1.86320921       1.00411708    -111.46276098      -1.33856861      -1.41739683      -0.85895679      -0.28589610
O        0.58821996       0.06389353      -1.09151538        0      -0.64596964       1.52507732      -0.04501288    -110.59198616       4.07044118       1.10761115      -3.34926850      -0.22442079
C       -0.19190013       0.45474760       2.21798608        0      -0.85554197      -2.08104035      -0.31408774     -58.84411854       1.05912316      -2.67160672       2.36609316       0.02949155
C        0.29813652      -0.73608612      -2.22580381        0       0.40987201      -0.29969822       0.02138356     -59.00262360      -1.35807658      -3.02521569       1.76509470       0.02171147
H       -1.18252477      -0.24902688       2.33336534        0       0.61406714       0.08428249       0.34478276     -12.74784145       2.02920945       2.31658829      -1.19752805       0.08307141
H        0.51359331      -0.12441909       2.91972251        0       0.27720354      -0.32974496      -0.19677814     -13.00770767      -0.50209902       0.15990677      -0.78699735       0.03992172
H       -0.11447980       1.39795631       2.68017080        0       0.08424389      -0.13860794      -0.44411197     -12.78836871      -1.23079515       1.23169800       0.43135502       0.08386070
H        0.25434992      -0.39801928      -3.22112793        0       0.33970100      -0.33949871      -0.07497599     -12.81966980      -0.71004281       1.72987352      -0.47496241       0.08903519
H        0.98807678      -1.55547527      -2.36860856        0      -0.27360748      -0.59387301      -0.15658965     -12.88078145       1.38886444      -0.16921656       0.60134133       0.06090549
H       -0.56570116      -1.36723762      -1.87313824        0       0.07495516      -0.79734217      -0.14104362     -12.77109834      -0.29784239       0.89268147      -0.90801283       0.07540231
12
Properties=species:S:1:pos:R:3:molID:I:1:momenta:R:3:energies:R:1:forces:R:3:charge:R:1 Nmols=1 Comp=DMC(1) energy=-588.7560182074262 free_energy=-588.7560182074262 dipole="0.1702681148171695 -0.23679738349013052 0.22707277018741148" pbc="F F F"
C       -0.03625140       0.04669045       0.07556632        0      -0.45441293       1.08725871      -0.75939865     -59.23337872      -0.64864894       0.72187416      -4.92990883       0.48331166
O       -1.15474966      -0.35065702      -0.00541595        0       0.27270592      -0.33283919      -0.71481423    -112.24859579      -1.26453003      -1.50007421       0.70172410      -0.44127866
O        0.45330279       0.72056985       1.04561401        0      -1.86183767       1.05940223       0.58574380    -110.99448649       1.30056291      -0.50740697       0.65245449      -0.22994329
O        0.63951977       0.13233218      -1.17235242        0       1.58855650       0.29358796      -1.75910654    -111.70963339       0.02900256      -1.17940779       1.90395837      -0.34869881
C       -0.12991842       0.33944662       2.27962046        0       0.42699937      -0.30463920       0.84279247     -58.84782317      -4.19649384       0.81351207      -0.54688027       0.01727483
C        0.31434499      -0.92445677      -2.21100775        0       0.41148641      -2.82922005       0.38370052     -59.01598644      -0.18635829       4.27903379       1.22310933       0.00282544
H       -1.31309918      -0.15688801       2.13861150        0       0.00359852       0.33156436      -0.41097745     -12.65251992       3.34592208       0.50298854      -0.00159816       0.06894786
H        0.55503286      -0.25329552       2.82192659        0       0.06477929      -0.14375995       0.40088766     -12.90159981       0.25415438      -0.39954503       0.71628347       0.08598521
H       -0.48932194       1.29039124       2.66682142        0      -0.33693467      -0.56013320       0.38244858     -12.73407794       0.73039185       0.07213908       0.95379375       0.08581697
H        0.17691375      -0.19604555      -3.00290561        0      -0.15825439       0.34149402       0.60721609     -12.65113037       0.71896853      -0.54741164      -0.97759717       0.09582753
H        1.15567140      -1.52803246      -2.15329830        0       0.48841583       0.50380521       0.45788544     -12.86795656       1.01251280      -1.22185460      -0.55109138       0.09067825
H       -0.64909312      -1.31342808      -2.09427553        0      -0.44510219       0.55347910      -0.01637770     -12.89882961      -1.09548401      -1.03384739       0.85575230       0.08925300
12
Properties=species:S:1:pos:R:3:molID:I:1:momenta:R:3:energies:R:1:forces:R:3:charge:R:1 Nmols=1 Comp=DMC(1) energy=-588.9562304475427 free_energy=-588.9562304475427 dipole="0.1724769022568498 -0.22127270494783172 -0.09547199601574739" pbc="F F F"
C       -0.09674305       0.16532646      -0.08349515        0      -0.82071963       1.44283255      -1.58783287     -58.89880918      -0.31042536      -0.94066502       1.31747441       0.47133501
O       -1.16446031      -0.41840895      -0.05469303        0      -0.30144801      -1.01847377      -0.67664013    -112.28852064       0.81020264       0.65094253      -0.07386416      -0.41990960
O        0.39861519       0.76438786       1.10068975        0       0.10442622       1.10978274       0.46125996    -111.40555242       1.22816209       0.17190530      -2.44025927      -0.28913679
O        0.70987535       0.10700412      -1.17843917        0       0.31458893      -0.67543714       0.88917897    -111.27107600      -0.85154478       0.14851886       1.83927679      -0.25886883
C       -0.15068151       0.35649244       2.34780038        0      -0.72461570       0.49084794       0.94334350     -58.94393603      -2.48673341      -3.35418293      -3.15136635       0.01372410
C        0.33676229      -0.94051030      -2.11855866        0       0.75911922       2.31169161       1.08332170     -59.07530278       1.85465223       3.73009428      -1.98941262       0.01427691
H       -1.08850291      -0.28864611       1.79765388        0      -0.34013911      -0.63146254       0.02838287     -12.48390876       1.11008122       1.70087639       2.63296934       0.08496286
H        0.42404964      -0.42349626       2.81808334        0       0.09199999      -0.56776282      -0.32267516     -13.14262211       0.79154174      -0.36170362      -0.08151210       0.04947989
H       -0.29320916       1.08757297       3.08752064        0       0.42389958      -0.25722473      -0.15219309     -13.02769144      -0.72523026       1.23565567       0.00342508       0.07706346
H        0.34404109      -0.40345645      -3.12759914        0       0.43857068      -0.81990346      -0.34188628     -12.84323031      -0.44110218      -0.40683087       0.93169985       0.06714774
H        1.19349451      -1.53694333      -2.21175528        0      -0.55724534      -0.77587298      -0.47752452     -12.78490197       0.79764054      -1.44588206       0.39976396       0.08760318
H       -0.59316472      -1.33419684      -1.94562277        0       0.61156318      -0.60901742       0.15326503     -12.79067882      -1.77724448      -1.12872855       0.61180507       0.10232205
12
Properties=species:S:1:pos:R:3:molID:I:1:momenta:R:3:energies:R:1:forces:R:3:charge:R:1 Nmols=1 Comp=DMC(1) energy=-588.4727571792308 free_energy=-588.4727571792308 dipole="0.041245778383084644 -0.1296532860234307 0.03680603428567604" pbc="F F F"
C       -0.15726563       0.25639407      -0.12635219        0      -0.27102354       0.71777388       0.37670235     -59.04243429       1.52263484      -2.25614998       2.41510473       0.47634179
O       -1.10474721      -0.46703097      -0.07851304        0       1.23309842      -0.41140883       0.09289180    -112.19872080      -2.01018680       0.50789130       0.61166288      -0.43218620
O        0.39658994       0.81027608       1.05971546        0      -1.04446566       0.14186742      -1.62822146    -111.59756515      -2.52025439      -1.28934559      -1.41311852      -0.30664473
O        0.70570524       0.07256241      -1.11305384        0       0.10673290      -0.02936297       0.61819698    -110.69122023       2.36343586       2.73483732      -0.35665320      -0.22138132
C       -0.22350950       0.24262727       2.31939026        0      -0.01383743      -1.10944933      -0.95957271     -58.86905213       1.23958612       2.51657480      -0.66030648       0.01692789
C        0.40415276      -0.82723416      -2.10446832        0       0.67142075      -1.02180513       0.26348552     -58.95772105       0.75839429      -4.08622262      -0.56576181       0.02716280
H       -1.20591124      -0.14515038       2.47519545        0      -0.94769114       0.28357174       0.59685610     -12.88701842      -0.71445912      -0.31415636      -1.43908457       0.08561015
H        0.49160898      -0.47495353       2.60730691        0       0.38536473       0.04738723       0.21021558     -12.87088485       0.76073577      -0.79531171       0.62863176       0.08111531
H       -0.22471790       1.13229157       2.96091350        0       0.13931241      -0.51068185      -0.30768871     -12.83481056       0.46031894      -0.16139685       0.13846954       0.07793807
H        0.25163593      -0.66303358      -3.16340525        0      -0.49967721       0.56024828       0.02677013     -13.01623273       0.27425969       1.36587063       0.20807388       0.06852990
H        1.01865381      -1.84783934      -2.09633725        0       0.32876044       0.64431410       0.61049055     -12.85383290       0.61253828       2.23711156       0.15546491       0.04545907
H       -0.41209559      -1.36610322      -1.74430761        0      -0.08799467       0.68754547       0.09987388     -12.65326409      -2.74700346      -0.45970250       0.27751689       0.08112728
12
Properties=species:S:1:pos:R:3:molID:I:1:momenta:R:3:energies:R:1:forces:R:3:charge:R:1 Nmols=1 Comp=DMC(1) energy=-587.8150573766039 free_energy=-587.8150573766039 dipole="0.18469010671148464 -0.0055658623279429015 0.26099869814139826" pbc="F F F"
C       -0.13991031       0.24718060      -0.06783390        0       0.75118227      -0.84613533       0.15228290     -59.43318771      -0.82891784      -4.36031101      -2.57151714       0.48913736
O       -1.11618512      -0.48605193      -0.05241135        0      -1.02945338      -0.65946331       0.50088692    -112.73014668      -0.27239110       0.75904141      -0.51299053      -0.49132978
O        0.28407130       0.79573627       0.96604102        0      -1.52085432       0.11740493      -0.73228430    -110.95362395       1.23828105       1.56386044       4.14867041      -0.25117706
O        0.76938491       0.14348787      -1.08899359        0       1.05342119       1.97238469       1.04628198    -111.85333518      -1.56955781       0.95587784       1.67510248      -0.35823795
C       -0.21310247       0.20396964       2.27196397        0       1.12384803       1.04787984       0.08187504     -58.53694071       6.69347179       5.65562463      -0.28380343       0.01068725
C        0.40274954      -0.93901547      -2.09025332        0      -0.27390868      -0.72706799       1.05822189     -58.79333226       3.24593071       2.92634564       2.03683627      -0.02637571
H       -1.15101509       0.06731763       2.32924484        0      -0.43221902      -0.11181369      -0.63996489     -12.57194107      -6.44604393      -1.43687595      -0.11050035       0.11339656
H        0.47567226      -0.47271936       2.63015586        0      -0.22293025      -0.30889889      -0.41725913     -12.73713725       1.03787956      -2.23038192      -0.03719994       0.09505296
H        0.06368560       1.07477416       2.98429903        0       0.05071135      -0.15320209      -0.42445268     -12.68912804      -0.70244998      -0.64593909      -0.83674320       0.07561477
H        0.29225292      -0.18353670      -2.83881003        0       0.34902045       0.06461528       0.26079188     -12.68597061       0.20729791      -0.76393116      -1.84998603       0.09353862
H        1.49954134      -1.31533960      -1.86133726        0      -0.17365967       0.09142857      -0.65359134     -12.27332738      -2.59931734      -0.92878983      -1.67493474       0.12149272
H       -0.57522869      -1.19911751      -1.74152210        0       0.32484204      -0.48713201      -0.23278827     -12.55698653      -0.00418302      -1.49452101       0.01706619       0.12820027
12
Properties=species:S:1:pos:R:3:molID:I:1:momenta:R:3:energies:R:1:forces:R:3:charge:R:1 Nmols=1 Comp=DMC(1) energy=-587.5505424004338 free_energy=-587.5505424004338 dipole="0.2184370117276038 -0.4015694289924699 -0.20483659114742037" pbc="F F F"
C       -0.11949741       0.05215606      -0.06775117        0       0.14203092      -2.67586115       0.92873544     -59.01265309      -0.04718623       2.61911932       1.30759739       0.48559714
O       -1.18263778      -0.49180234      -0.04524653        0      -1.23964908       0.06419085      -0.44317973    -112.31328020       0.42178045      -0.92375005      -0.79258216      -0.41923373
O        0.22190584       0.86218264       1.01337090        0      -0.28442626       1.59253727       0.90724569    -111.32834306       2.71173983       0.39735363      -3.53763393      -0.31740263
O        0.79797081       0.21563533      -1.00472000        0      -0.12588849      -0.29708678       1.13024808    -111.19449646      -1.45976416      -4.24458554      -2.09885194      -0.23393570
C       -0.13536840       0.28897045       2.20075972        0      -0.29144751       0.44574237      -1.53207996     -59.10815389      -2.26612341       2.49302689       0.77791665       0.01641916
C        0.47303634      -0.90000563      -2.03186089        0       1.49374268       0.76058946      -0.60155740     -58.09424637       1.23478146      -0.07599529      -4.54636048       0.01957340
H       -1.12221896       0.04230649       1.89983211        0       0.69614120       0.37007085       0.26842745     -12.62032856      -2.50901813      -0.06620260       1.31679665       0.07263763
H        0.21270007      -0.69479955       2.23336571        0      -0.25505746       0.36550932      -0.28674049     -12.97506780       1.97476430      -1.02279735       1.57116110       0.06292384
H       -0.11726774       1.23417102       2.86916426        0      -0.12360557      -0.29797980      -0.20031113     -12.73050517       0.34513818      -2.46322677      -0.09584956       0.08639215
H        0.20283632      -0.46069157      -3.09414059        0      -0.46694276      -0.21087354       0.04587488     -12.79004011      -0.16087914       0.37777748       2.24968720       0.06646805
H        1.20922194      -1.67126775      -2.59533741        0      -0.19205014      -0.18012514      -0.19992340     -12.63230121       0.55597133       1.98364381       2.39024696       0.06882701
H       -0.25533838      -1.68725669      -1.89210751        0       0.64715247       0.06328630      -0.01673945     -12.75112649      -0.80120449       0.92563647       1.45787211       0.09173369
12
Properties=species:S:1:pos:R:3:molID:I:1:momenta:R:3:energies:R:1:forces:R:3:charge:R:1 Nmols=1 Comp=DMC(1) energy=-587.7393423855095 free_energy=-587.7393423855095 dipole="0.24117174694344415 -0.32786100317265476 0.005039020646430732" pbc="F F F"
C       -0.12976117      -0.00758280       0.00679689        0      -0.48979818       1.26552199       0.38379710     -58.71229694      -0.68436240       2.96146474      -1.74849249       0.47234632
O       -1.23791785      -0.50525318      -0.07596427        0      -0.25317223      -0.70645957      -0.33750795    -112.26445360       2.35975962       0.08253400       0.49718528      -0.40212968
O        0.27149892       0.94844043       0.96736019        0       1.18217743       0.47728936      -1.74207829    -111.23920954      -1.20233726      -2.67934655      -0.36980767      -0.25196725
O        0.76260824       0.09005578      -1.00993584        0      -0.81866340      -3.36287279      -0.28138730    -111.26554888       0.27749183      -0.20205165       1.53806160      -0.27730550
C       -0.20642653       0.33510933       2.11708124        0      -1.98942570       0.09393850       1.19529947     -58.50249899      -1.02567653      -0.74895550       6.50652674       0.05966478
C        0.59603370      -0.85357508      -2.09812150        0       0.38243227       0.49287319       0.36550055     -58.95573855      -1.70006285      -0.99034814       3.28456873      -0.00160758
H       -1.40041284       0.14942135       2.26018794        0       0.63793312       0.10152142       0.24221671     -12.91748871       2.63491799       0.25489540      -1.12947172       0.05469751
H        0.38673859      -0.61239730       2.46060849        0      -0.19504815       0.57752291      -0.14822907     -13.17121131      -1.12222433       0.89644622      -1.48008915       0.02912374
H       -0.02797987       0.85190428       3.25865928        0       0.16654386      -0.19585914       0.02116625     -12.91794889      -0.10660038       0.18082119      -3.23636646       0.03438435
H       -0.17094729      -0.27824892      -2.67344909        0       0.09486988       0.31897543       0.18930578     -12.47893620       1.67466097      -0.95782388      -1.16208530       0.11034277
H        1.63549665      -1.39507380      -2.18733226        0       0.91184280       0.58858456       0.25903257     -12.61723339      -2.23116265       1.42452917      -0.90870437       0.10158382
H       -0.13402351      -1.54356786      -1.48110065        0       0.37030829       0.34896413      -0.14711583     -12.69677740       1.12559600      -0.22216502      -1.79132519       0.07086671
12
Properties=species:S:1:pos:R:3:molID:I:1:momenta:R:3:energies:R:1:forces:R:3:charge:R:1 Nmols=1 Comp=DMC(1) energy=-587.8598343523117 free_energy=-587.8598343523117 dipole="0.23115430875661971 -0.04394808824037585 0.0845511393152628" pbc="F F F"
C       -0.18565303       0.10397085      -0.03052368        0      -0.53551607       1.20675332      -1.09760214     -59.41496810       1.40176503       0.17693219      -0.85348138       0.49520652
O       -1.17900688      -0.51478654      -0.06570546        0       1.37990727       0.42580661       0.11254840    -112.31134766      -2.81571902      -1.12466146       0.49699617      -0.44184366
O        0.25372779       0.93197299       0.89723026        0      -1.86466754      -1.00044552      -0.27619532    -111.76589943      -1.46406053      -0.78157885       2.31691482      -0.31900040
O        0.74839620      -0.07504122      -0.94278514        0       0.01304074      -1.81162622       2.45405117    -110.71166060       1.49151070       1.81366632       1.22684200      -0.24216600
C       -0.29885852       0.38001970       2.24983569        0      -0.66209827       0.58569305       0.73492749     -58.20982515       0.52133447       1.04625346      -1.48326928       0.01997430
C        0.65646159      -0.80684944      -2.05872113        0       0.35081794      -0.00544812       0.15351686     -59.01253603      -0.59531280      -2.78443388      -3.46958166       0.04824532
H       -1.53773847       0.23366578       2.14021197        0       0.18903232       0.17004323      -0.34042364     -12.60745105       3.28704201       0.62337671       0.46289459       0.09394986
H        0.24017801      -0.68853456       2.16257548        0      -0.41266434       0.24105116      -0.04959846     -12.73010979      -1.24395212       2.29389145       1.38749051       0.08235864
H        0.12306456       1.31032884       2.99741076        0       0.04575071       0.39492239      -0.05394880     -12.46589051      -1.30666228      -3.06201816      -1.66948997       0.10117302
H        0.29990194      -0.27457111      -2.97185895        0       0.39023674      -0.13770917      -0.37323952     -12.92877225      -1.67561080      -0.07340197       0.82746054       0.05017266
H        1.65962885      -0.76176568      -2.46047154        0       0.45562038       0.12843405      -0.59064773     -12.67463308       1.12582073      -1.35392310       0.56976952       0.07395893
H        0.16294093      -1.98490631      -2.02098203        0       0.65054010      -0.19747479      -0.67338831     -13.02674069       1.27384461       3.22589728       0.18745415       0.03797082
12
Properties=species:S:1:pos:R:3:molID:I:1:momenta:R:3:energies:R:1:forces:R:3:charge:R:1 Nmols=1 Comp=DMC(1) energy=-588.280431648895 free_energy=-588.280431648895 dipole="0.32785729525427265 -0.036167737726862874 -0.21526550096124322" pbc="F F F"
C       -0.19793157       0.14917340      -0.09303712        0      -0.20314466      -0.35044797      -0.64741586     -59.29415153      -1.65401303      -3.67024955       1.36589470       0.48256170
O       -1.21893442      -0.52742581      -0.05380534        0      -1.58987441      -0.46273075       0.11801020    -112.46155383       0.60069798       1.25436205      -0.96509633      -0.45670682
O        0.15237882       0.88666451       0.96315347        0      -0.54584922      -0.52149045       1.89908861    -111.07080068       1.95202213       0.81485553      -0.42720207      -0.25757143
O        0.83289907      -0.13892329      -0.85229508        0       1.75192175      -1.06076292       0.47746882    -111.13530842       0.58899223      -0.01198984      -2.01465533      -0.26442128
C       -0.32589894       0.48032228       2.19600412        0      -0.62538223       0.85698441      -1.59246626     -58.64830655      -1.50749604      -0.14552084       3.16906365       0.05958602
C        0.77278415      -0.80474579      -2.20057356        0       1.90042011       0.65303839      -2.14370787     -58.75370042      -3.61176853      -0.67927791       1.46520924       0.01398491
H       -1.52367605       0.44865996       2.02045408        0      -0.39138647       0.24837263       0.05162032     -12.76806539       2.39477524      -0.07695832       1.25799895       0.06891047
H        0.07642317      -0.59735652       2.65162988        0       0.09623048       0.30601311       0.25919942     -13.09814444      -0.90599172       2.35247329      -1.60407328       0.03661634
H        0.06153777       1.30118507       3.08546347        0      -0.00576218       0.30475980       0.58810889     -12.86161511      -1.29546809      -1.89766918      -2.61657888       0.05485215
H       -0.00770393      -0.23863168      -2.81868492        0      -0.39519160       0.29576815       0.41132146     -12.84626492       1.65165084      -0.77701759       0.53958620       0.08544479
H        1.75561622      -0.95620141      -2.41842785        0       0.17597088       0.15614549       0.27716134     -12.53548855       2.64902664       1.16457310      -1.22564260       0.10958226
H        0.52993032      -1.94851530      -2.26245616        0      -0.16795246      -0.42564989       0.30161093     -12.80703180      -0.86242764       1.67241926       1.05549573       0.06716089
12
Properties=species:S:1:pos:R:3:molID:I:1:momenta:R:3:energies:R:1:forces:R:3:charge:R:1 Nmols=1 Comp=DMC(1) energy=-588.8486525525428 free_energy=-588.8486525525428 dipole="0.08121979011780334 -0.047654778389291476 -0.2181117782733732" pbc="F F F"
C       -0.25106090       0.02449554      -0.07375387        0      -0.16754580      -2.45087782       1.10733406     -58.63412390       3.74578824       0.28393396       0.96245203       0.46519172
O       -1.29222942      -0.53698990      -0.07351507        0      -0.20988215      -0.45373967      -1.25445195    -111.84289310       0.21975796       0.14999368      -0.79771461      -0.35433047
O        0.17918170       0.88663546       1.00264896        0       0.91483684       0.84083346      -1.39366791    -111.25682295      -0.25444610      -1.51876062      -3.10626382      -0.27095034
O        0.93112785      -0.18661132      -0.85322774        0       0.43833817      -0.77158661       0.02334628    -111.57645272      -2.52080456       0.50640642       0.07461432      -0.31213183
C       -0.39875857       0.59189684       2.20054538        0      -0.91117650       1.18930207       0.67317225     -59.02938523       0.03046396      -0.52918885       3.19092305       0.05860626
C        0.85733907      -0.79798601      -2.24999700        0       0.80775425       0.66533165       1.24780847     -58.98812452      -3.24178155       2.95732577       2.70045172       0.00481970
H       -1.50389836       0.54039173       2.20713069        0      -0.73966412      -0.12907403      -0.06875948     -13.09420382       0.38547922      -0.19667926      -0.35870219       0.05301764
H        0.01204595      -0.52691433       2.63971152        0      -0.14674566      -0.41427534       0.12332181     -13.12778264      -0.84631169       2.96972967      -0.78293900       0.02152282
H       -0.16311899       1.52789896       2.89284767        0       0.21913687       1.18166789       0.37253082     -12.86051567      -0.01366592      -2.14595439      -1.01936795       0.06432992
H        0.10460936      -0.13776071      -2.76985303        0       0.23569851       0.34371577      -0.50679579     -12.98952828       0.66078547      -0.48280516       0.06872476       0.06158505
H        1.79416508      -0.61274641      -2.65534527        0      -0.20767705       0.37562524      -0.52619271     -12.68745916       1.42769360      -0.57669654      -0.44561022       0.11110334
H        0.33585774      -1.69479113      -2.05078719        0      -0.23307335      -0.37692261       0.20235414     -12.76136057       0.40704137      -1.41730468      -0.48656809       0.09723619
12
Properties=species:S:1:pos:R:3:molID:I:1:momenta:R:3:energies:R:1:forces:R:3:charge:R:1 Nmols=1 Comp=DMC(1) energy=-588.4611154106394 free_energy=-588.4611154106394 dipole="0.3388665359073967 -0.13046159752784306 0.09702145468986671" pbc="F F F"
C       -0.14024151      -0.16260021       0.01784119        0       1.04680123      -1.47627931       1.08084456     -58.95811280      -3.18782762       2.19048229      -1.73162421       0.46042994
O       -1.32138092      -0.53685754      -0.17885628        0       0.67720520       0.89536294      -2.12561530    -112.45505212       4.22602117       0.42832305       1.09284758      -0.42855050
O        0.20040306       0.88210945       0.87911119        0      -0.50502361      -1.57412253      -2.15254526    -111.55425057      -1.15744165      -2.97673344       1.78973478      -0.30971298
O        0.89666820      -0.23530438      -0.84112184        0      -0.84693346      -0.94260123       1.29146455    -110.67640442       0.14666921       0.20874914       2.53892072      -0.21976437
C       -0.48692902       0.73706246       2.27722720        0      -1.09500358       1.60289769      -0.64612340     -58.61103361       3.24698390      -5.52240013      -3.96184784      -0.00208267
C        0.84184249      -0.71027053      -2.10801085        0       0.14928968       1.33777241       1.29156035     -59.25100060       1.13812404      -0.05970764      -2.09216059       0.03594115
H       -1.44452007       0.64903821       2.04421942        0      -0.44496257       0.34028899      -0.37843259     -12.67268612      -4.13275643       0.01631358      -0.48905849       0.10793277
H       -0.12650159      -0.22621364       2.79976101        0       0.37175785      -0.36416949       0.55625819     -13.02946896      -0.33806829       1.04421314      -1.00512123       0.05865109
H       -0.09709484       1.47156230       2.74668899        0       0.43494175       0.61688684       0.32212825     -12.54787355       1.93613883       5.17149123       3.15306462       0.11126779
H        0.29584305      -0.09031004      -2.76740491        0      -0.53765481       0.12243436       0.13508573     -12.96495901      -1.45544033       0.58786367      -0.48918230       0.06127556
H        1.80239483      -0.71783774      -2.61692436        0       0.24616809      -0.39045314       0.89871835     -12.81670416       1.28711071       0.95158868       0.65608461       0.06234340
H        0.69098614      -1.72447789      -2.29020761        0       0.50341422      -0.16801752      -0.27334344     -12.92356948      -1.70951353      -2.04018357       0.53834235       0.06226883
12
Properties=species:S:1:pos:R:3:molID:I:1:momenta:R:3:energies:R:1:forces:R:3:charge:R:1 Nmols=1 Comp=DMC(1) energy=-588.4228169036618 free_energy=-588.4228169036618 dipole="0.24923419210064707 -0.0727780751691321 0.1663522676490084" pbc="F F F"
C       -0.19574225      -0.18822224       0.01107447        0      -1.14059128       0.71909343      -1.21010634     -59.46465020       3.35882759       3.37233474       0.26091173       0.50743576
O       -1.24383654      -0.48265864      -0.30443610        0      -0.06206489       0.09802046      -1.63754348    -111.98340260      -6.55389618      -2.89001644      -1.08909834      -0.42450861
O        0.13795084       0.76366633       0.85837337        0      -1.13382463      -1.45821925       1.58613601    -111.16121341       0.71647164       0.87640501       2.80231633      -0.30116650
O        0.87009602      -0.28342495      -0.70615992        0       0.71769480      -0.65078091       2.74615108    -111.02611584       2.09803515      -0.43715697       0.30516168      -0.29710377
C       -0.44740201       0.81773564       2.18514926        0       1.84140375       1.72251468      -2.01568665     -58.93467196       0.40631640       0.90909581      -4.39879458       0.01074272
C        0.88924128      -0.69055209      -2.06787437        0       1.32757193      -0.79934626       0.36160026     -59.19884577       0.85316014      -0.62436132       2.04583212       0.00509886
H       -1.44385860       0.84188704       2.10566934        0      -0.31621937       0.06718226       0.39303568     -12.86442638      -4.10648892      -0.45462226      -0.43127043       0.07439550
H       -0.10004888       0.09542830       2.73302705        0       0.10371918      -0.27771519       0.19924346     -12.85779046       1.82153582      -4.57374032       2.94692217       0.07230423
H       -0.20931365       1.66689212       2.64931507        0      -0.63161376      -0.31279339      -0.70599673     -12.77346205       1.52979761       3.85835659       1.33529318       0.08199515
H        0.15327331      -0.14526725      -2.56949845        0       0.14362248       0.11132372      -0.01697025     -12.86976837      -0.34264104       1.33521110      -1.32448028       0.08380304
H        1.96331067      -0.55191459      -2.02869982        0      -0.38991773       0.39943763      -0.17549057     -12.31250780       0.11026580      -0.11645087      -2.21942202       0.12043210
H        0.55606455      -1.69954917      -2.11334520        0      -0.45978049       0.38128282       0.47562754     -12.97596206       0.10861600      -1.25505508      -0.23337156       0.06657153
12
Properties=species:S:1:pos:R:3:molID:I:1:momenta:R:3:energies:R:1:forces:R:3:charge:R:1 Nmols=1 Comp=DMC(1) energy=-588.587314736775 free_energy=-588.587314736775 dipole="0.27020110273416625 0.16227674417115961 0.04264524476821033" pbc="F F F"
C       -0.22134815      -0.06584265      -0.07870402        0      -1.11734137       1.40468398      -1.03637936     -59.03538576      -2.58579841      -1.55034796      -0.13295285       0.46574640
O       -1.35623116      -0.48690635      -0.41488826        0      -0.46430192       0.39873505      -1.51540389    -112.73269207       4.16104567       1.60616422       1.04186042      -0.44951948
O        0.12768945       0.69000924       0.95518787        0       0.41657426      -0.93555523       0.23554502    -110.38837403       2.03334238      -0.19414028      -4.02283989      -0.22594830
O        0.99420519      -0.33386701      -0.58986925        0       2.94598947      -1.32593089       0.61351785    -111.15099738      -0.57645278      -0.26081328      -2.08167141      -0.25983649
C       -0.45251368       0.89856775       2.09935965        0      -1.77023510       1.01473416       2.12390108     -59.28741940       0.33780955       2.38739630       3.32994405       0.04244604
C        0.92815225      -0.74929324      -1.98256653        0      -0.28498290       0.05092026       0.74618207     -58.97850677       1.47051721       2.56176890      -0.53152500       0.01082192
H       -1.43783435       0.69509041       2.17856591        0       0.42267769      -0.01970480      -0.31339014     -12.92390532      -4.11394683       0.17764670      -0.60886207       0.05781126
H       -0.15064887       0.10698922       2.76241308        0      -0.02513060       0.95631480      -0.37185027     -12.77607968       1.43719385       0.17282848       1.40787849       0.06110710
H       -0.23848862       2.03032668       2.34159078        0       0.10720108      -0.82337439      -0.35212681     -12.82351132      -0.26325888      -2.17138472       0.36367132       0.06476648
H        0.37588675      -0.02004874      -2.53383924        0      -0.00683828      -0.25134202       0.40106206     -12.90740144      -1.77245371       0.62824598      -0.01603223       0.06116299
H        1.82834428      -0.51899993      -2.63404882        0      -0.48362428      -0.63915841      -0.10287708     -12.75778700       0.19321107      -1.43932564       1.74268447       0.08057994
H        0.44276750      -1.66078879      -2.00916635        0       0.26001195       0.16967750      -0.42818052     -12.82525457      -0.32120910      -1.91803872      -0.49215528       0.09086215
12
Properties=species:S:1:pos:R:3:molID:I:1:momenta:R:3:energies:R:1:forces:R:3:charge:R:1 Nmols=1 Comp=DMC(1) energy=-587.8097459306091 free_energy=-587.8097459306091 dipole="-0.11524760671717243 0.26594096910436754 0.29849643540614745" pbc="F F F"
C       -0.28013130      -0.01968385      -0.11759320        0       1.44685950       0.03946870       0.45986445     -58.72900540       6.49361687      -0.26559817       2.86979991       0.48230737
O       -1.30528716      -0.41286958      -0.45563057        0       0.17835105       1.24004897      -0.93414261    -111.78218317      -2.47494990      -0.47408569      -1.24221015      -0.34816169
O        0.18202328       0.64553323       0.91737557        0       0.97318345      -0.27540284      -0.01208288    -111.15388998      -1.50032996       1.07773801       2.00625433      -0.27341047
O        1.09179396      -0.44690749      -0.60683714        0      -0.14560220      -1.99490412      -1.07860910    -111.62092563      -3.92173165       0.64782600      -0.70335344      -0.32730733
C       -0.59161915       0.98667129       2.20886990        0      -0.98788501       0.83043310       0.41707329     -58.46357661       2.67028319       1.20103976      -0.83665905       0.01148052
C        0.87198382      -0.74854379      -1.95328531        0      -1.48396921      -0.87681576      -0.21261295     -59.03061679       0.30358841      -3.33258920      -1.52073911       0.04172537
H       -1.70307718       0.80942639       1.91614548        0       0.66810675       0.37852075       0.23498876     -12.69025113       2.03810489       0.17280851       1.38939034       0.10287035
H        0.14108763       0.42882095       3.02670113        0      -0.47770499       0.65443955      -0.27105484     -12.44482052      -2.68960631       0.73398148      -1.79516826       0.10220967
H       -0.25327583       2.17281376       2.45326055        0      -0.67032546      -0.19057350       0.18502366     -12.68181761      -1.39956246      -2.80486679      -0.93640847       0.07519345
H        0.04510884      -0.12353552      -2.36662230        0       0.39919816      -0.34474888       0.17926944     -13.13509038       1.51206830      -0.09222239      -0.42301190       0.05180684
H        1.86444009      -1.01413247      -2.42623615        0       0.16053511       0.24339078       0.51769210     -12.90467511      -0.78818606       1.88354652       0.08257543       0.06661346
H        0.47446173      -1.84215128      -2.15723115        0      -0.06074715       0.29614324       0.51459069     -13.17289359      -0.24329533       1.25242196       1.10953036       0.01467245
12
Properties=species:S:1:pos:R:3:molID:I:1:momenta:R:3:energies:R:1:forces:R:3:charge:R:1 Nmols=1 Comp=DMC(1) energy=-587.6931041272983 free_energy=-587.6931041272983 dipole="0.26382840608862096 0.13830362239463717 0.24580543587808892" pbc="F F F"
C       -0.08168487      -0.06295802      -0.04678630        0       0.66070852      -1.13460897       0.02125632     -59.24886611      -5.29834868      -0.87291081      -1.47159137       0.46869799
O       -1.23783067      -0.32242251      -0.51920703        0       2.87320453       1.81482727      -0.30534590    -112.86578508       3.84557198       1.03323103       2.05393522      -0.48985225
O        0.18338554       0.69833242       0.98911671        0       0.14736039       1.78015089       2.20211786    -111.01160878      -0.14928799       0.55399999       2.14174097      -0.24259780
O        1.00693048      -0.49407113      -0.65778983        0      -1.73241420       0.04671756      -0.04219432    -111.11019352      -0.25776037       1.05706083       1.24729949      -0.25035448
C       -0.60629028       1.05658917       2.17329223        0      -1.14842874       0.45338448      -0.60998287     -58.10520950      -3.03610565       0.66539647       1.09700641       0.05761225
C        0.80408908      -0.93709168      -1.96704946        0      -0.48587153      -2.65979712      -0.24918117     -58.94413240      -0.04938000       1.21188903      -1.61678725       0.02974011
H       -1.84147860       0.74066187       2.21188038        0       0.22128615      -0.33201625       0.28913459     -12.85750204       3.25847973       0.04652798      -0.69097085       0.05171761
H       -0.14204561       0.52795434       3.22445424        0      -0.42329794       0.20087879      -0.21655650     -12.71700180      -0.87317330       1.77506054      -2.98051566       0.07273306
H       -0.86813588       2.33138466       2.20690466        0      -0.01039721       0.24457036      -0.50748573     -12.63234000       1.65062500      -3.36970549       0.02519113       0.06781899
H        0.20972974      -0.13418657      -2.64197458        0       0.36791287      -0.28614175       0.08220920     -12.98084095       0.37077336      -1.82455250       1.64260581       0.05078384
H        1.85477352      -0.64963523      -2.30045453        0      -0.33094710       0.01869525      -0.46801729     -12.50944370      -0.93021341      -2.02342303      -0.43841714       0.09401301
H        0.25113264      -1.96776118      -1.87487218        0      -0.13911574      -0.14666052      -0.19595419     -12.71018024       1.46881935       1.74742596      -1.00949676       0.08968768
12
Properties=species:S:1:pos:R:3:molID:I:1:momenta:R:3:energies:R:1:forces:R:3:charge:R:1 Nmols=1 Comp=DMC(1) energy=-587.4040877565483 free_energy=-587.4040877565483 dipole="0.09806864810453145 -0.16176123271447848 -0.08597243451023687" pbc="F F F"
C       -0.10949900      -0.10491061      -0.02178736        0       0.52808960       0.74233275       1.35214005     -59.15614329       3.89445659       2.94667746       2.69286976       0.49255581
O       -1.11579117      -0.24539087      -0.53213244        0      -0.87270330       0.55919710      -0.50741356    -111.77548554      -6.92231458      -0.62439253      -1.12787913      -0.40027647
O        0.18810180       0.74236568       1.12153184        0       0.17714123      -0.41199655       1.17469094    -111.71352755       1.10564492      -2.42303623      -2.72856978      -0.34079702
O        0.96239367      -0.46443433      -0.63728897        0       1.52927594       0.01658030       0.27640384    -110.84598438       3.70682749      -1.82766150      -1.48117507      -0.24302808
C       -0.73997789       1.12657567       2.10159683        0      -0.98941347       0.33556516      -1.26233132     -58.74695032       1.90552483       0.23715706       0.99461616       0.05094786
C        0.83401739      -1.07400501      -2.00503701        0       0.09677932      -1.02493227      -0.74689439     -58.35798405      -2.78988516      -0.24213036      -1.75443287       0.03565668
H       -1.61270092       0.31678603       1.98317611        0      -0.19419025      -0.16998591      -0.45992729     -12.87597915       1.24714271       2.51704323       0.93299322       0.07264893
H        0.03824930       1.06707524       3.16469269        0       0.36998783       0.57342826       0.09309327     -12.83526103      -2.64678403      -0.30947885      -2.35044775       0.03645332
H       -0.72367774       2.30096318       1.91334417        0      -0.25705627       0.74422460      -0.07263266     -12.73684482      -1.48185020      -2.27471421       0.59783589       0.07293142
H       -0.00884723      -0.35104722      -2.51868953        0      -0.37408945      -0.24745342       0.14304602     -12.72544643       2.17524693      -1.47598341       0.71416993       0.07437178
H        1.72708099      -1.31063105      -2.70950632        0       0.03171244      -0.69950722       0.11081860     -12.74811546      -0.82213715       1.56086444       2.01327504       0.08867654
H        0.31214918      -2.13913003      -2.14770555        0      -0.04553361      -0.41745280      -0.10099349     -12.88636574       0.62812766       1.91565490       1.49674462       0.05985922
12
Properties=species:S:1:pos:R:3:molID:I:1:momenta:R:3:energies:R:1:forces:R:3:charge:R:1 Nmols=1 Comp=DMC(1) energy=-588.6143675159825 free_energy=-588.6143675159825 dipole="0.0677520302804937 0.10186956774511594 0.25940996604170824" pbc="F F F"
C       -0.07580735      -0.00629860       0.04978489        0      -1.10153589       1.21477244      -1.32762727     -58.97015837      -2.79227976      -1.71938196      -4.89547712       0.45035846
O       -1.22009586      -0.20977196      -0.53619176        0      -0.91301313       0.91343640       0.86939817    -112.86862333       4.90969528       1.15842503       3.44166348      -0.47840046
O        0.24307058       0.68642887       1.10777814        0       1.29878357      -1.67241186      -0.58545115    -110.80543571      -0.24022830      -0.07027585       0.42832107      -0.20208423
O        1.07982033      -0.50027906      -0.63910039        0       1.17197119      -0.06887724       0.12531640    -111.77005322      -3.04149059       0.88673301      -0.18284327      -0.33599502
C       -0.73104719       1.21333646       2.01629853        0       0.66955997       1.25402606      -1.91637392     -59.01028596      -1.65554510      -1.88636113       1.21452713       0.02601205
C        0.77442341      -1.19075669      -2.03240333        0      -1.07322086      -1.47466906       1.61678762     -58.68453958       0.69176039       0.57010815       3.83226874       0.00252421
H       -1.72089885       0.62952773       2.01369129        0      -0.40610683      -0.24824789       0.46516619     -12.85562470       1.44990426      -0.49695825       0.11043316       0.06437888
H       -0.34817932       1.21908481       3.11021122        0       0.14316540      -0.24905555       0.94145371     -12.83805712      -0.25959958       0.09447167      -2.06369790       0.08067932
H       -1.22130837       2.10354999       1.71342405        0      -0.42088751       0.21136063      -0.68594603     -12.79471930       0.80820107       1.64198492      -0.38734343       0.08290677
H       -0.04804048      -0.61300633      -2.59669285        0       0.15376072       0.00388379      -0.43749640     -12.72726892       1.85687948      -0.81901181       0.77094694       0.10739953
H        1.90118861      -1.25316701      -2.21686528        0       0.28681474       0.39184190       0.16673226     -12.50732684      -1.96601403       0.02915037      -0.94770301       0.11360489
H        0.38010709      -2.14398331      -1.57766459        0       0.19070862      -0.27605963       0.76804044     -12.78227447       0.23871688       0.61111585      -1.32109579       0.08861561
12
Properties=species:S:1:pos:R:3:molID:I:1:momenta:R:3:energies:R:1:forces:R:3:charge:R:1 Nmols=1 Comp=DMC(1) energy=-589.1475202813767 free_energy=-589.1475202813767 dipole="-0.03478722748463372 0.08155467280603605 -0.029071603385198708" pbc="F F F"
C       -0.13687219       0.04386275      -0.12462150        0       2.03322437       0.84880011      -0.61742235     -58.96276221       6.71245250      -0.07511914       3.89311440       0.48207295
O       -1.21693464      -0.14794989      -0.42217133        0      -0.98804038       0.68002407       1.30213602    -111.71454719      -4.55011013      -0.45634150      -2.04067454      -0.36129632
O        0.27656940       0.61053677       1.08265195        0      -0.43969683      -1.02445006      -0.78183844    -111.46872499      -0.59740598       0.15202133      -1.71217932      -0.30749681
O        1.04843164      -0.49389753      -0.63802640        0      -2.44417563       0.57031912       0.17243821    -111.34118402      -2.47350463       1.24325606      -0.13452182      -0.26981205
C       -0.75408884       1.22480698       1.89260649        0      -0.48911020      -1.49860918      -2.34531522     -59.09211841       1.58167755      -3.05008826      -1.76484563       0.00848110
C        0.79277748      -1.22241130      -1.80128242        0       1.40548008       0.92813689       3.39651379     -59.12681937       1.51073988      -0.04643856      -2.90756780       0.03622740
H       -1.41221751       0.47346033       2.16863000        0       0.04913628      -0.35582994      -0.40420117     -12.86715804      -2.33498883      -1.20521874      -0.41293324       0.07431904
H       -0.28290200       1.32920682       2.76128957        0       0.81291621       0.71611267       0.27214424     -12.64250709       2.47491578       1.23113897       3.81286571       0.08743360
H       -1.05622490       2.10749809       1.52409287        0       0.20332105       0.36631065      -0.07525364     -12.95573163      -1.50259658       2.67546498      -1.50606535       0.07775061
H        0.19794539      -0.76132727      -2.64937576        0      -0.49081592      -0.14609742      -0.06735593     -13.03083291      -0.73386356      -0.14368285       1.70928983       0.05136640
H        1.73347600      -1.17900801      -2.43715547        0       0.37505331      -0.60164245      -0.38365510     -12.88351237      -0.08075930      -0.73612715       1.29016156       0.05912056
H        0.49492125      -2.25581659      -1.57817601        0      -0.02729234      -0.48307446      -0.46819040     -13.06162205      -0.00655671       0.41113487      -0.22664381       0.06183351
12
Properties=species:S:1:pos:R:3:molID:I:1:momenta:R:3:energies:R:1:forces:R:3:charge:R:1 Nmols=1 Comp=DMC(1) energy=-588.4713823350269 free_energy=-588.4713823350269 dipole="0.3554614101661023 0.07035487478671394 0.11107722343355321" pbc="F F F"
C       -0.03949053       0.07772406      -0.05541467        0      -2.72405080       0.16441165       1.46783831     -59.47926071      -6.89281980      -2.47398556      -2.81504886       0.48442245
O       -1.24356398      -0.08563714      -0.38065634        0       1.53105985       1.73334364      -0.24752159    -113.18100397       2.38032546       0.61128080      -0.01218330      -0.54183869
O        0.28872399       0.57473019       1.03191943        0       0.84325010      -0.15504750      -0.38398964    -110.62989805       2.51248015       1.49466986       2.27168815      -0.22445355
O        0.92831112      -0.45573307      -0.65755526        0       0.87243786       0.53569715      -0.15161891    -110.50597813       5.01204630       0.70822406       2.40522645      -0.23408107
C       -0.71676049       1.14271686       1.77633342        0       1.19624286      -0.45330028      -0.22112869     -59.09460782       0.15756187      -1.09562678       0.96356236       0.01848951
C        0.86003261      -1.23427519      -1.73845343        0      -0.37709370      -1.28047650      -0.82367590     -59.21975480      -3.80819487      -2.38310978      -0.51902160       0.01675175
H       -1.55687056       0.50246319       1.93601662        0       0.02773954       0.32751702       0.18184740     -12.80144104      -0.14029058      -0.97497821       0.83427450       0.08576888
H       -0.11611525       1.55043393       2.51220676        0      -0.69641748      -0.55201037      -0.75087231     -12.58367829       0.42987922       0.27542523       2.81260829       0.09106866
H       -1.14765001       1.95606632       1.37447810        0      -0.53200552      -0.42485231      -0.26721596     -12.82475561      -1.51191151       3.12405591      -2.42030177       0.06964063
H       -0.05131569      -0.83335878      -2.12998199        0      -0.12644666       0.11017126      -0.00607319     -12.42496337      -0.06190706       0.40500093      -2.72178842       0.10019849
H        1.80030514      -1.47285337      -2.07904548        0       0.40480608       0.22914100       0.30350309     -12.74477432       1.72881615       0.61071294      -1.59858198       0.09362516
H        0.43977959      -2.24569790      -1.53299983        0      -0.41952213      -0.23459477       0.89890740     -12.98126622       0.19401467      -0.30166942       0.79956619       0.04040780
12
Properties=species:S:1:pos:R:3:molID:I:1:momenta:R:3:energies:R:1:forces:R:3:charge:R:1 Nmols=1 Comp=DMC(1) energy=-588.3967444397105 free_energy=-588.3967444397105 dipole="0.06810043775421834 -0.10972932659599295 0.12242616711105843" pbc="F F F"
C       -0.14969063       0.00518915       0.02064547        0       1.61615383      -1.45626886       0.61006584     -59.10309300       2.05171258      -0.15805165      -3.33491920       0.47910481
O       -1.26101693       0.00329145      -0.44362542        0      -2.77768454       0.98580954      -2.09325064    -112.54302523       1.09051859      -0.54560172       0.77608144      -0.42982199
O        0.34879774       0.60213855       1.04912260        0       0.95405489       0.97702812       1.03587441    -110.86958189      -0.69519591      -0.19802516       1.53811480      -0.22604720
O        1.02356441      -0.39867855      -0.63262679        0       0.92781036       0.50472230       0.17887499    -111.72006163      -3.19853876      -0.55534593      -1.30224588      -0.34403811
C       -0.72017456       1.14841647       1.76298885        0      -0.54086036       1.19801961       1.60475746     -58.93285636       1.05819649       0.82221720       4.32610327       0.02929265
C        0.76273700      -1.39538205      -1.77380928        0      -0.58808269      -1.28428888       0.11702274     -58.73167636       1.00135033       5.57035159      -0.92864735      -0.01633310
H       -1.38830911       0.39372278       2.24924703        0       0.38392971      -0.20570504       0.04528722     -13.00052862       0.21469937       0.29316394      -1.00837404       0.06195220
H       -0.19333843       1.59529885       2.80173961        0      -0.53197484       0.07721442      -0.94407919     -12.78512599      -1.29044111      -0.22568745      -2.81834918       0.05973014
H       -1.20289978       1.80134141       1.05408961        0       0.51655391      -0.26502113       0.14292531     -12.77593106      -0.58522651       0.61971826       0.69786662       0.08970574
H        0.28027852      -1.01641662      -2.71373443        0       0.41656545      -0.37706197      -0.50584154     -12.80976505      -1.15340014      -0.31787880       1.63796418       0.08551590
H        1.72038997      -1.26163644      -2.11528827        0      -0.35626332       0.07504256      -0.25170657     -12.51340098       2.97136265      -1.17655872      -0.81885197       0.10165823
H        0.55581799      -2.13646819      -1.16386796        0      -0.02020239      -0.22949066       0.06006997     -12.61169826      -1.46503758      -4.12830155       1.23525731       0.10928074
12
Properties=species:S:1:pos:R:3:molID:I:1:momenta:R:3:energies:R:1:forces:R:3:charge:R:1 Nmols=1 Comp=DMC(1) energy=-588.5660475775037 free_energy=-588.5660475775037 dipole="0.08167166664770564 -0.27171331408917443 -0.009835036553238493" pbc="F F F"
C       -0.10000199      -0.02844197      -0.04169702        0      -0.56781864       0.68045409      -1.53773836     -59.05194245      -0.34593099       2.17774587      -0.15915087       0.47034840
O       -1.23337603       0.02682619      -0.49274152        0       3.01211573      -0.34676816       0.12487693    -112.46786577       1.93835612      -0.60515646       1.36502259      -0.42453372
O        0.35230628       0.63555212       1.12348575        0      -0.86648794       0.48899353       1.35847357    -111.55345529      -2.11756700      -0.59181285      -1.12103631      -0.28823746
O        0.98903639      -0.42929477      -0.68919933        0      -1.26126658      -1.91187432      -1.79239161    -111.05002177      -0.72466747      -2.41034338      -0.60875305      -0.23886774
C       -0.75362614       1.23019186       1.84534835        0      -0.01057707       2.06025846       0.35172501     -58.40146386       0.65029221       2.82715166       0.26060752       0.04993544
C        0.79240415      -1.47058400      -1.72824736        0       2.09164115      -1.01594764       0.47454843     -58.90252394       0.08549415       1.31465012      -1.29865953       0.01978549
H       -1.41655497       0.38921589       2.19950393        0      -0.42054868       0.35646459       0.14413128     -12.93961648       0.75454856       1.35580600       0.23956176       0.07539036
H       -0.19945152       2.17646707       2.75451605        0      -0.30948130       0.05435568      -0.05847618     -12.60575387      -1.57232494      -3.27609265      -2.31989956       0.04895155
H       -1.35898129       1.96270849       1.13575486        0      -0.38947544      -0.06605368       0.52712748     -12.98958525       1.04494442      -1.57431646       1.20943218       0.05866790
H        0.04347559      -1.17356927      -2.51090239        0      -0.64747915       0.20970493       0.61582418     -12.87763181       0.79049491       0.57995632       0.55152951       0.07319092
H        1.76523370      -1.68583473      -2.18515227        0      -0.54491800      -0.59516227       0.48820869     -12.81275870      -0.00408960       0.83150453       0.06628120       0.08310048
H        0.44731845      -2.45866205      -1.54353794        0      -0.08570407       0.08557480      -0.69630942     -12.91342840      -0.49955038      -0.62909268       1.81506456       0.07226837
12
Properties=species:S:1:pos:R:3:molID:I:1:momenta:R:3:energies:R:1:forces:R:3:charge:R:1 Nmols=1 Comp=DMC(1) energy=-588.0922489025369 free_energy=-588.0922489025369 dipole="0.14819340706426717 -0.06717427018867997 0.044961106697725184" pbc="F F F"
C       -0.01078381       0.07354419      -0.09115505        0       2.12558241       1.38445126      -0.24896158     -59.12606037      -2.60642660      -0.74978602       0.60710194       0.47760013
O       -1.15467462       0.00349705      -0.50218325        0      -0.72425220      -0.14264017      -0.42000448    -112.41938965       0.39389937       0.69525033       0.53450746      -0.44974988
O        0.29123832       0.62743808       1.16166331        0      -1.50201559      -0.29637188      -0.27743042    -111.49898584      -1.03768401       0.55688540      -1.20827633      -0.27909147
O        0.93751983      -0.55883020      -0.75338432        0       0.88972304      -1.30261092       0.46389140    -110.76708121       3.54357052       1.82968888       3.69663040      -0.25425285
C       -0.79777496       1.36689023       1.84080040        0      -1.29780511       0.68337481      -0.32630977     -58.14660313       0.23003225       1.60503699       1.29536171       0.05404279
C        0.82404351      -1.54023961      -1.71219371        0      -0.74222320      -1.44920814       0.18886308     -59.22250034      -0.69014434      -0.65415002      -0.56465979       0.03492439
H       -1.36876173       0.74181205       2.53342797        0       0.31179761      -0.02950636       0.42465601     -12.97389699       0.24917530      -0.48809640      -0.50315006       0.06921917
H       -0.30627260       2.25237423       2.87101346        0       0.43683482       0.53731016       0.42385298     -12.62496590      -0.86722753      -2.14100199      -3.54763141       0.03786359
H       -1.59910772       1.86473976       1.12996721        0       0.32258760      -0.13527776      -0.42855467     -12.88664858       2.10594624      -0.69271189       1.16154749       0.07738346
H        0.08480884      -1.04323095      -2.32110802        0       0.43941884      -0.02344548      -0.61868950     -12.64673659      -0.09883813      -0.67374582      -1.73509609       0.08617323
H        1.89240877      -1.72280448      -2.14387825        0      -0.41646746       0.50872276       0.01044112     -12.79815093      -2.13871310       0.25824154       0.68746308       0.08377372
H        0.30248074      -2.44226231      -1.27742471        0       0.15681924       0.26520172       0.80824583     -12.98122937       0.91641002       0.45438899      -0.42379840       0.06211373
12
Properties=species:S:1:pos:R:3:molID:I:1:momenta:R:3:energies:R:1:forces:R:3:charge:R:1 Nmols=1 Comp=DMC(1) energy=-589.0319334435508 free_energy=-589.0319334435508 dipole="0.08629179084827034 0.029630730188851206 0.08213618770698951" pbc="F F F"
C       -0.01903082       0.12402989      -0.10126324        0      -2.00135633      -0.08975176      -0.14240928     -59.41766476       0.15141690      -1.89961771       0.61497561       0.48554392
O       -1.12577857       0.02953476      -0.51784735        0       1.73365922       0.65028264       0.19442997    -112.34971394      -1.39230861       0.38447472      -1.13136076      -0.44492942
O        0.23638539       0.64640813       1.09138367        0      -0.08930495       0.94462279      -1.30911930    -111.39692719       0.99871584       0.47768855       0.65664927      -0.30099430
O        1.02497941      -0.57294360      -0.65943706        0       0.96095451       0.22657650       1.74184988    -111.51014468      -1.16236934       0.66975236      -0.49146866      -0.30227981
C       -0.81670167       1.40612131       1.87477915        0       0.43622677      -1.26442625      -0.77824384     -58.90390675       0.60832016      -1.22294347      -4.23163749       0.00615795
C        0.70963248      -1.63015402      -1.68106319        0      -0.62912221      -0.08605030       0.37077588     -58.80125507       4.69486654       1.00067558       1.32404777       0.02208068
H       -1.19331644       0.68218520       2.59738081        0      -0.21184720      -0.16399060      -0.12204436     -12.75987472      -0.48710746       0.63384802      -0.44876245       0.10282813
H       -0.25425508       2.20722326       2.20973171        0       0.90363736       1.15973255      -0.13885440     -12.73838540       1.01309199       1.24883225       1.51383102       0.09453963
H       -1.36506879       1.88561925       0.97665428        0      -0.39972108       0.12585557      -0.00003544     -12.66376203      -0.56615582      -1.18960115       1.77896727       0.09250263
H        0.23949875      -1.47094973      -2.60614190        0      -0.34854735      -0.59054015       0.18730094     -12.89418221      -1.50780175       0.86661624      -0.23944269       0.08901113
H        1.83034633      -1.75441802      -2.06816518        0      -0.26509593      -0.45574905       0.29816485     -12.72726568      -1.79648898      -0.26785459       0.86872807       0.06939070
H        0.45293805      -2.46088033      -1.06640709        0      -0.08948280      -0.45656194      -0.30181491     -12.86885101      -0.55417948      -0.70187080      -0.21452696       0.08614878
12
Properties=species:S:1:pos:R:3:molID:I:1:momenta:R:3:energies:R:1:forces:R:3:charge:R:1 Nmols=1 Comp=DMC(1) energy=-588.1545120031914 free_energy=-588.1545120031914 dipole="0.0797545217278429 -0.13627025960310718 0.23287293417340135" pbc="F F F"
C       -0.02486117       0.04848096      -0.03629963        0       0.98685651      -1.16406487       0.18621690     -59.42299407      -3.22524991      -0.56191687      -3.31901930       0.47652907
O       -1.14663217       0.05858442      -0.58250586        0      -1.65847713       0.10513051      -1.52777400    -112.89297465       2.33614261      -0.36962954       1.29634752      -0.49291743
O        0.24952245       0.71497196       1.02909642        0       0.33777035       1.23158590      -0.06857284    -110.68093259       1.57726571      -0.05767286       0.93376094      -0.21248244
O        1.03575037      -0.57567917      -0.57545761        0      -0.48373123      -0.74028139       0.75122363    -111.46247161      -0.73960608      -2.01394801      -0.66637905      -0.28363553
C       -0.69499602       1.42710491       1.74333147        0       1.18868574       0.88678808      -1.78161101     -58.69645492      -7.84498167      -9.41338176      -3.46385254       0.02305850
C        0.69722108      -1.68167387      -1.58388633        0      -0.51959921      -0.71496711       1.35723451     -58.60652819       1.33929401       1.46197907      -0.56624149       0.01735637
H       -1.26480605       0.86227754       2.53116432        0       0.61940006      -0.03679737       0.23310319     -12.87987922       1.42503244      -0.68733050       0.28503207       0.05287584
H       -0.35079226       2.16455994       2.10004030        0      -0.28453238      -0.37701765       0.21148845     -12.33704558       5.22607942      10.28616069       4.88413226       0.09878460
H       -1.68245149       1.66559736       1.28208315        0      -0.04553240      -0.08214759      -0.12347748     -12.82255037       0.84283608       0.29681816      -1.51393086       0.06592122
H       -0.15548097      -1.30332230      -2.21433470        0       0.22501225       0.73342059       0.64957355     -12.66285043       1.57803238       0.37106379      -0.30937402       0.09731913
H        1.75671285      -2.07585752      -2.05918814        0      -0.11339408      -0.00038553      -0.20543258     -12.74652602      -2.75637282       1.48906211       0.93161680       0.08307028
H        0.16503762      -2.52315319      -1.21410822        0      -0.25245847       0.15873644       0.31802769     -12.94330436       0.24152783      -0.80120429       1.50790767       0.07412040
12
Properties=species:S:1:pos:R:3:molID:I:1:momenta:R:3:energies:R:1:forces:R:3:charge:R:1 Nmols=1 Comp=DMC(1) energy=-588.6954452221744 free_energy=-588.6954452221744 dipole="-0.009947687487806882 -0.18574881659557818 0.08101402254238634" pbc="F F F"
C       -0.10213153      -0.04222485      -0.13042482        0      -1.18342625      -0.56834491      -1.04788246     -58.85529270       4.09417576       3.05134669       3.18975227       0.47935412
O       -1.13918803       0.06229905      -0.63842677        0       0.57717716       0.09405309      -0.70535752    -111.95422709      -2.51715887      -0.33921927      -0.90520544      -0.37827119
O        0.32019948       0.78644480       0.98337372        0       1.90901011       0.80344121      -1.60757056    -111.50238702      -0.15127682      -1.18122073      -2.89096933      -0.31905907
O        1.00698383      -0.67178144      -0.53038066        0      -0.23519827      -1.82711211       1.32522634    -111.00295012       0.64652859       1.06525141       2.16989347      -0.24644650
C       -0.68907769       1.45465244       1.71591097        0       0.43601147       0.80040683       2.06549503     -59.19839270       0.77213925       0.24400870       1.45902106       0.02637580
C        0.64356595      -1.64653090      -1.42088107        0      -1.35573108       1.71374907       1.97211135     -58.96804299       0.79173855       0.99142603      -4.91501474       0.02853337
H       -0.65044551       0.76497705       2.56398726        0       0.10761219       0.07933729      -0.26495239     -12.73332853      -1.87789798      -0.10145359       0.32486932       0.07027934
H       -0.25979378       2.35731327       2.27838827        0      -0.43239193      -0.78321494      -1.00124627     -12.95330081      -0.39769233      -0.49709349      -1.70193892       0.06200721
H       -1.61924193       1.66004355       1.11962199        0       0.04314559       0.12020504      -0.10257267     -13.04751311       0.93632185      -0.37593654       0.89818106       0.07303189
H        0.07289877      -0.93113670      -2.14800759        0      -0.18180391      -0.46054455      -0.54819827     -12.65716417      -0.46879792      -2.26769898       0.44195472       0.06699690
H        1.47925884      -2.01540711      -2.21728212        0       0.05950294      -0.07260005      -0.08502608     -12.90294552      -1.22333158       0.49900850       2.58290856       0.06189185
H        0.14743538      -2.37544973      -0.82905061        0       0.25609199       0.10062405      -0.00002650     -12.91990045      -0.60474850      -1.08841874      -0.65345203       0.07530629
12
Properties=species:S:1:pos:R:3:molID:I:1:momenta:R:3:energies:R:1:forces:R:3:charge:R:1 Nmols=1 Comp=DMC(1) energy=-587.8482108250156 free_energy=-587.8482108250156 dipole="-0.0257686203707864 -0.04423698268012305 0.3148784034461579" pbc="F F F"
C       -0.06450604       0.04555625      -0.09495570        0       0.58669617       2.44496245       0.63088712     -59.09338607      -2.41598716       0.01257386      -2.27589398       0.47257664
O       -1.17879663       0.06578240      -0.69685106        0      -0.18439667      -0.10563404      -0.49280997    -112.98500934       4.10387972      -0.10159067       2.75204477      -0.47669727
O        0.41802228       0.78188750       0.84819692        0       0.26579457      -0.36367372      -0.96023322    -111.13574128      -2.82034729       1.99636009       3.64245383      -0.25164679
O        0.99104612      -0.73550944      -0.41506393        0      -0.80985852       0.53415857       1.76086347    -111.12761823      -3.31544430       0.66574879      -1.36629075      -0.25127837
C       -0.62310460       1.43096499       1.78452889        0       1.48572793      -0.52993567      -0.21493979     -58.35261600       0.32308827       2.06538373      -0.98113557       0.01724248
C        0.53612068      -1.59383803      -1.43780409        0      -0.97721734      -1.64618772      -1.00198557     -58.67890967       3.38736098      -5.17049106       0.81443121       0.02896708
H       -1.05539126       0.84208363       2.66930284        0      -0.19938595       0.49358001      -0.06295411     -12.75091532       2.11664354       0.64405529      -0.73129745       0.08780506
H       -0.16968203       2.63918874       1.94757764        0      -0.49312876      -0.71556629       0.08833013     -12.55088853      -1.28856740      -3.65795881       0.02143496       0.08359155
H       -1.60068248       1.50866808       1.25805039        0       0.06283421      -0.15771174       0.01139042     -12.81285948       0.85748681       0.38243115      -0.57388335       0.08344204
H       -0.16708857      -1.52837224      -2.24664114        0      -0.15012661       0.03218500       0.02442728     -12.72272022       0.66579395       2.00479547      -0.57133987       0.09865998
H        1.65101489      -2.01266983      -1.57288064        0       0.62604318      -0.07619980       0.35444093     -12.61223045      -2.37667529       0.26426637      -1.30012630       0.07156251
H       -0.00929687      -2.51942519      -1.01163012        0      -0.21298220       0.09002295      -0.13741668     -13.02531623       0.76276816       0.89442579       0.56960251       0.03577511
12
Properties=species:S:1:pos:R:3:molID:I:1:momenta:R:3:energies:R:1:forces:R:3:charge:R:1 Nmols=1 Comp=DMC(1) energy=-588.3472715541437 free_energy=-588.3472715541437 dipole="0.01307428746185794 -0.24353552999359152 -0.11667257737019766" pbc="F F F"
C       -0.07997138       0.14698581      -0.16886052        0       0.45239431       0.54647416      -1.21621801     -59.16497854       5.65583900      -0.78823783       3.89143431       0.50401913
O       -1.09132315       0.10677820      -0.67401366        0       0.69776830       1.21756903       0.04644629    -112.00356656      -5.97418284       1.16949791      -2.43195683      -0.40039874
O        0.39629949       0.80456943       0.94970468        0      -0.17727592       0.63751565       2.99801679    -111.18558677       0.80718341       0.04720031      -1.47498186      -0.27506754
O        0.88789319      -0.68986852      -0.37213967        0      -2.19930872       0.43288622      -0.69375381    -111.30376856       1.42364496      -3.13464803      -2.52426662      -0.30461028
C       -0.57010953       1.36199281       1.69060329        0       0.12265928      -0.75212170      -1.00293106     -58.75957567      -1.25691743       3.44608522       3.03903874       0.06097763
C        0.52659128      -1.78376128      -1.46890500        0      -0.60237240      -0.89119552       0.74188806     -58.70392523       0.97250468       3.16199151       1.17620045      -0.00309131
H       -0.71896608       0.74039338       2.63382599        0       0.58418208      -0.47505720      -0.17620475     -13.03839812      -0.13602815       0.96737153      -1.02508867       0.05276178
H       -0.35871726       2.68433467       2.13234511        0       0.06857917      -0.08707288      -0.10540373     -13.04319295      -0.09781988      -3.59181488      -1.29807855      -0.00168123
H       -1.43415624       1.47067067       1.04503625        0       0.14201970       0.02207374      -0.14547708     -12.99128108      -0.72125254       0.03204781       0.49993110       0.06314262
H        0.14146803      -1.04743828      -2.24371328        0       0.59585857       0.25493428       0.34349350     -12.64312169      -0.25705065      -1.71123425       0.62247301       0.10199851
H        1.48853853      -2.19388547      -1.82473727        0       0.44021892      -0.78267284      -0.71618755     -12.78710957      -0.62072272       0.08744409       0.57417673       0.09711283
H       -0.12452321      -2.45398263      -0.88357647        0      -0.12472329      -0.12333294      -0.07366864     -12.72276681       0.20480216       0.31429661      -1.04888180       0.10483659
12
Properties=species:S:1:pos:R:3:molID:I:1:momenta:R:3:energies:R:1:forces:R:3:charge:R:1 Nmols=1 Comp=DMC(1) energy=-588.4672173566258 free_energy=-588.4672173566258 dipole="0.14475893488667513 -0.23210544447623144 0.006610001339985885" pbc="F F F"
C        0.00747013       0.18501041      -0.15616100        0      -0.05780117       0.42603953       0.72796245     -59.14660891      -3.28605766      -1.08958307      -0.00178634       0.47235942
O       -1.12322844       0.24139020      -0.68254565        0      -0.17207630       3.26053628       0.71539210    -112.78585778       3.16391367       0.74230171       1.42767028      -0.46625065
O        0.45097133       0.78392230       0.99684478        0       1.06128309      -0.95436915      -1.66360580    -111.36421948      -1.06175877      -0.20630373      -2.58937219      -0.27448854
O        0.84562743      -0.77085860      -0.40352671        0       1.13369353      -3.46834605      -0.85143992    -110.77922760       1.58162414      -2.46839024      -1.35437979      -0.22957194
C       -0.63529915       1.37416325       1.66158103        0      -1.33378072      -0.13667978       0.16146217     -58.94411152       1.69518986       1.61098103       2.57270090       0.03219134
C        0.55715950      -1.80376722      -1.41584219        0       0.04868228       0.38452075       0.40502614     -58.64224067      -7.33680360       5.15600527       1.11242197       0.01862662
H       -0.77123870       0.61962200       2.51975695        0      -0.68018355       0.12766517       0.31927922     -12.86322159      -0.24019050       1.69812785      -0.50307719       0.06549299
H       -0.11811589       2.49928018       1.99863447        0       0.36030043       0.71345453       0.25753912     -12.79521006      -2.04136020      -2.85689313      -0.50343819       0.05494570
H       -1.54543767       1.41161458       1.05888953        0      -0.06267840      -0.05191755       0.00161345     -12.87739885       0.34340071       0.42354512       0.11129642       0.09067573
H        0.26054552      -1.26803277      -2.35817234        0      -0.25495394      -0.37619876      -0.45390208     -12.85598094      -0.19678093      -0.08388459       0.68309255       0.06988273
H        1.20351383      -2.41037923      -1.71144896        0       0.11378861      -0.09601206       0.64810893     -12.53656751       6.75344251      -4.47995737      -1.39747643       0.10062408
H       -0.31714606      -2.52476997      -1.19255174        0      -0.15627386       0.17130707      -0.26743577     -12.87657244       0.62538077       1.55405115       0.44234801       0.06551251
12
Properties=species:S:1:pos:R:3:molID:I:1:momenta:R:3:energies:R:1:forces:R:3:charge:R:1 Nmols=1 Comp=DMC(1) energy=-588.0112180941853 free_energy=-588.0112180941853 dipole="-0.05554117199646292 -0.02256740916770807 0.26102740652820605" pbc="F F F"
C       -0.04572952       0.12621745      -0.13369652        0      -0.22298283      -1.87601635      -0.44171511     -59.08916587       2.60521162      -2.21624827      -0.24552372       0.48255848
O       -1.06858940       0.43959599      -0.59594891        0       0.86522552       2.65742946       1.79485855    -112.08305942      -2.35786170      -0.97788910      -2.80794069      -0.40971314
O        0.43816464       0.72732832       0.86893027        0      -0.47693648      -0.51793266      -0.82702198    -110.80999558      -0.11666067       1.47280055       5.06946886      -0.23869985
O        0.88666206      -0.94232359      -0.46776376        0       0.27079675      -0.65441190      -0.38928697    -111.51661388      -1.35169117       6.93531359       2.66663580      -0.32271790
C       -0.63539072       1.40124652       1.72522996        0      -0.25068562      -0.71971304       0.15273070     -58.51440249      -1.53089382      -0.63530751      -2.90734632       0.00048046
C        0.52949694      -1.78759701      -1.42679335        0       0.25232575      -1.35898233      -0.03761265     -59.20552874      -3.31023740      -1.61890834      -0.30224261       0.04007109
H       -1.07868340       1.15551989       2.66673183        0       0.10587359       0.20503306       0.24960364     -12.74819014       0.67897616      -2.24177762       0.53178735       0.08706961
H       -0.37434304       2.35252431       1.96300208        0       0.09047853       1.16984302      -0.00297845     -12.74038946       1.68605987       3.01357997      -0.07051636       0.08643100
H       -1.55228043       1.51311832       1.04474264        0       0.10454051       0.32870257      -0.31530581     -12.71080028       1.15024069      -0.22706550       0.57795236       0.08723970
H        0.34024239      -1.42612588      -2.46355831        0       0.27401994       0.27717302      -0.26420238     -13.25187887       0.20226554      -0.03224269       0.79082179       0.04507884
H        1.41292759      -2.29031681      -1.22190532        0      -0.79431708       0.40020412      -0.09410390     -12.29929278       1.22828767      -2.95617352      -1.40162665       0.11020550
H       -0.43775022      -2.21737378      -0.92373459        0      -0.21833858       0.08867102       0.17503439     -13.04190059       1.11630322      -0.51608157      -1.90146981       0.03199622
12
Properties=species:S:1:pos:R:3:molID:I:1:momenta:R:3:energies:R:1:forces:R:3:charge:R:1 Nmols=1 Comp=DMC(1) energy=-588.4314016037508 free_energy=-588.4314016037508 dipole="0.15012875757510524 -0.5144433806081673 -0.02668044704980046" pbc="F F F"
C       -0.02204848      -0.01854030      -0.11612615        0      -0.17792683       0.26619904       0.46360367     -59.32069113      -4.71665065       6.55679661       0.42313859       0.47945130
O       -1.03306801       0.55762085      -0.60851208        0       1.03226688       0.38147134      -1.46786862    -112.81138163       1.97824250      -3.72635799      -0.90744458      -0.50108918
O        0.38626202       0.68517443       0.96618316        0      -0.62045625      -1.19816163       3.04640664    -111.19412921       1.27740664      -0.70359652       1.28760965      -0.30867670
O        0.83027020      -0.86498158      -0.43292978        0      -1.66418664       1.29786592       1.06991522    -110.80308873       1.06653435      -4.28282287      -0.89591785      -0.21153117
C       -0.60789814       1.46535809       1.69783813        0       1.64270697       1.99985871      -0.85906674     -59.09109810       0.16937892      -1.30191059      -2.55886319      -0.00252274
C        0.51277178      -1.87041669      -1.47217475        0       0.93080002      -1.38527631      -1.07513986     -58.62617805      -0.09071056      -0.94320483      -1.26985035       0.02489609
H       -0.59121635       0.94715859       2.62549820        0       0.39538157      -0.24431002      -0.17882853     -12.86486892      -1.06374222      -0.01487322       0.68052942       0.08445658
H       -0.24843360       2.42936705       1.73906240        0       0.00760867      -1.16914575      -0.24479638     -12.91016164       1.20608005       2.10913068       0.64236795       0.07610114
H       -1.42975539       1.59140723       0.93740803        0      -0.57349822      -0.16455354       0.06164133     -12.57745022      -0.14942885      -0.80449492       1.44227364       0.11146887
H        0.58184231      -1.18702031      -2.33222184        0       0.14921856       0.30101440       0.00358426     -12.67273888      -0.17738528      -0.91667649      -0.47829457       0.09062597
H        1.31639076      -2.79625771      -1.61678250        0      -0.95362774       0.17841268      -0.30662805     -12.70531868      -1.70175677       2.63933481       0.97603168       0.08250501
H       -0.57105020      -2.38268480      -1.48709006        0      -0.16828701      -0.26337485      -0.51282294     -12.85429641       2.20203187       1.38867533       0.65841963       0.07431484
12
Properties=species:S:1:pos:R:3:molID:I:1:momenta:R:3:energies:R:1:forces:R:3:charge:R:1 Nmols=1 Comp=DMC(1) energy=-588.191574474523 free_energy=-588.191574474523 dipole="-0.14357782018437515 -0.12067828084836268 0.1433185739991968" pbc="F F F"
C       -0.11135631       0.14451539      -0.03810848        0       0.14979036       1.53654986       1.57614922     -59.09506819       4.69636104      -3.42474869      -0.52317411       0.49116200
O       -0.96479855       0.54432879      -0.70680766        0       0.21791474       0.39793555      -2.45193075    -112.06735787      -2.66812716       0.90252734      -1.47419944      -0.39415302
O        0.39267998       0.58187297       1.09836625        0       0.04539351      -2.03820021       1.34583916    -111.05091585      -1.28085403       0.06894182      -0.41166221      -0.23429945
O        0.77384293      -0.90649680      -0.41729499        0      -1.05692779      -2.03754207      -0.73699390    -111.69596470      -1.00049624      -1.17306787      -1.06183120      -0.34241310
C       -0.52019046       1.49162987       1.66196578        0       1.75721499       0.96264139       0.69329574     -58.78570292       2.66431300       3.24286358       1.43583123       0.02887873
C        0.49056151      -1.87021148      -1.59604907        0       0.08166547       1.00091100      -0.96687669     -58.36636155      -0.13280012      -1.04455020       1.81255142       0.03802597
H       -0.62856807       1.20830431       2.67425674        0      -0.18921323       0.81791936       0.29627290     -12.80312687       0.71709989      -0.03815701       1.75989901       0.07281496
H        0.06838228       2.66875037       1.64566663        0      -0.60395391      -0.73815987       0.00560367     -12.77594367      -2.11625299      -3.06379542      -0.16336471       0.05036594
H       -1.54238842       1.41860481       1.41247634        0      -0.14216538      -0.02082203       0.15806187     -12.85132926      -0.76696677       0.50353915      -1.75602061       0.08277847
H        0.73599514      -1.34823473      -2.49456520        0       0.25307705      -0.48567015      -0.44293169     -12.95825271       0.20049092       0.21622605      -0.40611674       0.07975145
H        1.15994746      -3.03002216      -1.61564980        0       0.14460228       0.29708969       0.36715283     -12.71315773      -1.71102810       3.61800690       0.74636466       0.06005759
H       -0.62013323      -2.10998189      -1.57475913        0      -0.65739808       0.30734748       0.15635763     -13.02839316       1.39826056       0.19221436       0.04172271       0.06703047
12
Properties=species:S:1:pos:R:3:molID:I:1:momenta:R:3:energies:R:1:forces:R:3:charge:R:1 Nmols=1 Comp=DMC(1) energy=-587.2606282380161 free_energy=-587.2606282380161 dipole="-0.005484329894692571 0.02861076927431348 0.2412599880005077" pbc="F F F"
C       -0.06033623       0.16128760      -0.05855957        0       0.29379399      -0.85039050      -2.11234879     -58.73129850      -0.17304302      -2.17914746      -2.73596900       0.45261489
O       -0.92901457       0.55651225      -0.84942417        0       1.78142874      -0.53780809      -1.01582888    -112.41097923       2.35883662      -0.38591882       3.12698332      -0.41220193
O        0.35173765       0.46247670       1.18829271        0      -1.35660726      -0.96712804       1.56685165    -111.15981373      -1.66731526       1.94841094      -0.64586254      -0.22281911
O        0.71439510      -1.01945257      -0.46370162        0      -0.58580708      -0.53495858      -0.31996403    -111.43194626      -0.50720382       4.41893240       1.85408014      -0.31881407
C       -0.44168031       1.54409622       1.81634534        0       0.38193782       1.44905020       1.81161863     -58.18333373       1.16225800       2.69929591      -4.29552928       0.03119026
C        0.43117369      -1.76125884      -1.62706501        0      -0.96890338       1.43630880       0.40575820     -58.84338748       2.34159184      -2.83885500       4.72169252       0.02934531
H       -0.34619683       1.78663514       2.81325423        0       0.63698593       0.11427590      -0.21335373     -12.77784280       0.37939416      -0.74551299       1.74124702       0.10400240
H       -0.18326297       2.89466175       1.33675757        0       0.09351985       0.03043299      -0.32522326     -12.76707350       0.10349170      -3.52396040       0.76850762       0.00824042
H       -1.39938837       1.51140379       1.35807712        0       0.26050704       0.05537521       0.23930301     -12.78546607      -1.02845557      -0.34420494       0.34555408       0.09259988
H        0.73180666      -1.50770174      -2.57725155        0      -0.03886564       0.14117318      -0.04486166     -13.05599252       1.29730803       1.03648861      -1.54554236       0.07261751
H        1.12669010      -2.66139879      -1.00469942        0       0.12110933      -0.29105984       0.31064359     -12.19664775      -2.04733878       0.96902865      -3.06467614       0.08979336
H       -0.59400171      -1.87476401      -1.60216770        0      -0.61909934      -0.04527122      -0.30259473     -12.91684667      -2.21952391      -1.05455691      -0.27048538       0.07343109
12
Properties=species:S:1:pos:R:3:molID:I:1:momenta:R:3:energies:R:1:forces:R:3:charge:R:1 Nmols=1 Comp=DMC(1) energy=-588.626885712227 free_energy=-588.626885712227 dipole="0.09432207409317421 -0.25132289776188504 -0.11279355326737592" pbc="F F F"
C        0.00436313       0.03223557      -0.18043159        0       1.19802021      -2.03435280       0.37837982     -59.15416730      -2.11561996       3.84633309       4.39803387       0.48839615
O       -0.80258770       0.53778642      -0.86848764        0       1.58761337      -0.03870823      -0.28380898    -112.28085916      -1.53296208       1.72209793      -0.72955772      -0.42980145
O        0.25630450       0.43263774       1.23712179        0      -1.15148026      -0.47625233      -0.13645961    -112.01045456      -0.66358421      -0.08987323      -1.57751065      -0.38027136
O        0.66158127      -0.95828184      -0.44016112        0      -0.71966929       1.30974924       1.03979578    -110.22190827       3.62543008      -5.18601511       0.52599335      -0.18495683
C       -0.36459256       1.66033195       1.85470708        0       0.81139866       0.12628738       0.26893450     -58.94889999       0.13549734      -1.50417502      -2.71600937       0.02975834
C        0.31009052      -1.71907870      -1.58059716        0      -1.95641531       0.86384216      -0.82939225     -58.85362088       3.73973708      -2.32149432       0.23048126       0.02217534
H        0.08775020       1.69180161       2.87676595        0      -0.08425853      -0.39130073      -0.55966357     -12.90526267      -0.59130382       0.14376429      -1.15749534       0.08631407
H        0.01507909       2.42930301       1.07922764        0       0.41583240       0.50808125      -0.66747142     -12.94343362      -1.01294086      -0.41894068       1.78305397       0.06838588
H       -1.52755692       1.49673961       1.81288318        0       0.25332805       0.23072491       0.88824087     -13.03965115       2.15525441       0.59591366       0.24823842       0.06161313
H        0.71463302      -1.22640236      -2.38933031        0      -0.08476160       0.48730689       0.40556169     -12.73676826       1.01865753       1.18826960      -2.14826476       0.08146498
H        0.68719710      -2.83267454      -1.70916125        0      -0.11490258      -0.87871065      -0.61285293     -12.78150926       0.11273990       2.00443146       1.34055722       0.07120635
H       -0.65179090      -1.84373153      -1.75488406        0      -0.15470512       0.29333290       0.10873610     -12.75035059      -4.87090541       0.01968834      -0.19752025       0.08571540
12
Properties=species:S:1:pos:R:3:molID:I:1:momenta:R:3:energies:R:1:forces:R:3:charge:R:1 Nmols=1 Comp=DMC(1) energy=-589.2212591402871 free_energy=-589.2212591402871 dipole="-0.05233763135337148 0.08455855778782354 0.2592909380228436" pbc="F F F"
C       -0.05309627       0.03468262      -0.01746349        0      -1.39803509       0.97033705       2.41188771     -59.25909753       1.19218473      -0.90135290      -2.03227206       0.47626628
O       -0.68539770       0.56299524      -0.88992829        0       2.25107147       0.94785915      -0.03045018    -112.40480524      -0.60862354       0.70019542       0.72804842      -0.44060200
O        0.15181463       0.40908897       1.21475124        0      -2.16935774      -0.38637690      -0.80393599    -110.98835731       0.01327398      -0.42615239      -0.21964868      -0.23302046
O        0.70254666      -1.09530821      -0.38340279        0       0.66781532      -4.30941416       0.41262551    -111.67713289      -1.60868947       0.77413849       0.37474945      -0.32647233
C       -0.22899308       1.66282779       1.74794134        0       1.97702639      -1.33904895       0.08554879     -59.02270124      -1.40068376      -0.68090822       3.06354197       0.03179404
C        0.19076100      -1.63564556      -1.68458038        0      -2.20327658       3.08413783      -1.09080693     -58.92760956      -0.77033160       3.60944277       3.57269257       0.00623247
H        0.37406869       1.52337981       2.72853667        0       0.23475631       0.35456378      -0.45985502     -12.55625832      -0.77326227       1.33596112      -1.40597350       0.09142568
H       -0.13285015       2.55363099       1.15785693        0       0.03804243       0.94956040      -0.47548884     -12.94033022       0.90231992       0.01410940      -0.40453659       0.08081936
H       -1.35277344       1.77329877       2.11668607        0       0.08889930       0.04137189      -0.27364265     -12.96758751       1.66118249      -0.90916960      -0.82481515       0.05024030
H        0.54501525      -0.98873511      -2.38567878        0      -0.31750597      -0.05198536      -0.20896276     -12.83069144       1.18082689       1.35367380      -2.30137957       0.08689586
H        0.51591368      -2.55887749      -1.66413855        0       0.18809426      -0.58776843       0.28764692     -12.74712696       1.50105179      -4.47734734      -0.33087228       0.09629605
H       -0.85413108      -1.49083739      -1.61792071        0       0.64246992       0.32676370       0.14543345     -12.89956091      -1.28924916      -0.39259053      -0.21953457       0.08012474
12
Properties=species:S:1:pos:R:3:molID:I:1:momenta:R:3:energies:R:1:forces:R:3:charge:R:1 Nmols=1 Comp=DMC(1) energy=-587.9311018461394 free_energy=-587.9311018461394 dipole="-0.07541690620663327 0.32156647504619806 0.3346971600982344" pbc="F F F"
C       -0.11916827       0.03277524       0.02097847        0       0.22651428      -1.08365151      -1.22612786     -58.74679160       2.72883792      -1.77021558      -2.60462358       0.47014591
O       -0.59216857       0.64273262      -0.87594922        0       0.71096226       2.30837895       0.13244986    -112.00191004      -0.86947151       0.49696935      -0.27658653      -0.39381738
O        0.06322737       0.37697674       1.20832737        0      -0.37791137      -1.18475235       0.74707958    -110.46140237       1.79290188      -2.20830348       3.26238868      -0.20731601
O        0.65742299      -1.27109251      -0.36681202        0      -2.30151795      -0.29156199      -0.29123199    -111.93990322      -2.79168727       4.01061018       0.36067070      -0.35528918
C       -0.08447507       1.67667117       1.72721710        0       1.89825785       0.84823792      -0.09203129     -58.90834156      -1.70461595      -2.36765158       4.54318805       0.01606546
C        0.12263692      -1.50210795      -1.66657765        0      -0.60163939       0.18765360       1.27518327     -58.95447832      -2.71008783       1.22122552       2.69895949       0.03443402
H        0.76767436       2.04098621       2.43748891        0       0.04532097       0.01405074      -0.21481511     -12.66243740      -1.71707313      -1.54920529      -0.28020037       0.08850042
H        0.08900355       2.24209600       0.97702525        0       0.25040691      -0.84251763      -0.41778132     -12.56135756       0.37290662       4.59964511      -5.39148665       0.09130748
H       -1.19210395       1.66717546       2.04876608        0      -0.04748314      -0.12500074       0.39589910     -12.67768556       1.79855318       0.78827755       0.30732965       0.08611867
H        0.48742437      -1.03959640      -2.50728043        0      -0.03369813      -0.12772031       0.43499111     -13.06884362       0.92995793       2.24142581      -1.33057463       0.06019886
H        0.33533596      -2.44320858      -1.81627893        0      -0.34254286       0.64389033      -0.45495191     -12.80200113       1.04330914      -5.56273972      -0.76036983       0.06981942
H       -1.00985965      -1.43096718      -1.58459160        0       0.57333058      -0.34700702      -0.28866344     -13.14594947       1.12646900       0.09996214      -0.52869500       0.03983232
12
Properties=species:S:1:pos:R:3:molID:I:1:momenta:R:3:energies:R:1:forces:R:3:charge:R:1 Nmols=1 Comp=DMC(1) energy=-589.1157623174349 free_energy=-589.1157623174349 dipole="0.11462717307732705 -0.15168705606983768 -0.04335826027521056" pbc="F F F"
C       -0.02281839      -0.04936138      -0.11061301        0       1.30551620       0.10975423      -1.05518543     -58.96754457      -1.58505988       4.76484807       2.26566839       0.47100277
O       -0.55408207       0.77428195      -0.86181531        0       1.57836421       1.36851230       1.10156543    -112.60757163       1.28751179      -2.08763912       1.39849531      -0.44500648
O        0.09010224       0.26832483       1.28961040        0       0.71122498      -1.60703572       0.79649722    -111.63799375      -0.24924342       0.56126992      -1.65208075      -0.32043834
O        0.48072284      -1.19696696      -0.36114407        0      -3.27457920       1.50947510       0.58094573    -110.71421566      -0.12333644      -1.47269806       0.95972345      -0.19411629
C       -0.02110439       1.70240644       1.68440396        0       0.90397780      -0.08186192      -1.82016804     -58.88147490       0.93825288      -2.50251953       3.74092628       0.02753637
C        0.08281194      -1.56623362      -1.63263033        0      -1.00561248      -2.56259764      -1.94015738     -58.95208458      -2.63075360      -1.39536611      -2.29488760       0.03366958
H        0.86755140       1.78685944       2.50805880        0       0.09126535      -0.30724621      -0.10663551     -12.85323746      -1.59164050       0.11955601      -2.13451034       0.06166357
H        0.08530881       2.24427057       0.80843328        0      -0.32875943       0.22480035       1.04152054     -12.87776387       0.14598133       1.30918502      -1.10152015       0.09475569
H       -0.94048058       1.94962432       2.33691343        0       0.09050168       0.56823062       0.15018704     -12.98196912       0.95484611      -0.71412788      -1.50598029       0.06628806
H        0.48665290      -0.77955867      -2.23239514        0      -0.32261316      -0.02586877       0.52565692     -12.74322571       0.10990728       0.12388081      -1.33919588       0.08188214
H        0.31233641      -2.59567307      -2.03322253        0       0.07965325       0.59605020       0.61571490     -12.91920139       0.51244069       1.07524850       1.11126531       0.07580152
H       -1.11453481      -1.53972911      -1.77804423        0       0.17106079       0.20778747       0.11005858     -12.97947968       2.23109377       0.21836236       0.55209626       0.04696141
12
Properties=species:S:1:pos:R:3:molID:I:1:momenta:R:3:energies:R:1:forces:R:3:charge:R:1 Nmols=1 Comp=DMC(1) energy=-588.3133479341288 free_energy=-588.3133479341288 dipole="0.15800531463218967 0.053170048891247476 -0.007573685887444901" pbc="F F F"
C        0.03523737       0.09715050      -0.03827084        0       0.53641411       1.63035905       2.43339042     -59.43455531      -1.05435101      -3.31147259       0.32785575       0.49229569
O       -0.48186888       0.80880969      -0.81692240        0       0.67902606       1.41047295      -0.15835482    -112.45495617      -0.21716894       1.83717603      -1.55049331      -0.44654870
O        0.10120285       0.23066280       1.25901021        0       0.17226901       0.20964769      -1.01565648    -111.09569942       0.05534156       2.43676820       0.30773363      -0.24733752
O        0.32306439      -1.19133898      -0.29361476        0      -2.49515271      -1.02906187       1.07932979    -111.67022597       0.00013643      -0.13656949      -2.35438889      -0.32549661
C        0.06088824       1.62261784       1.62669498        0       1.71415203      -0.60434845      -0.92056621     -58.64316724       2.94337292       2.59936624      -0.08783880       0.03157160
C       -0.02693283      -1.65231476      -1.72834580        0       0.02811776      -0.05986158      -0.26154536     -58.52388104       2.14951728       0.11701792       2.24532517       0.01443421
H        1.18273559       1.75142153       2.05131707        0       0.56978312       0.32561336      -0.32211204     -12.76198131      -2.68644650       0.04786004       0.25288666       0.06423532
H        0.11505959       2.56203559       0.84066224        0       0.10616590      -0.95362452       0.00511848     -12.86743146      -0.29930139      -2.86005976       0.52214622       0.05544686
H       -0.82925961       1.94840166       2.18099195        0      -0.52979080      -0.48050448       0.10909201     -12.86820107       0.72086494      -0.82022211       0.51613894       0.08415014
H        0.44109293      -0.91676733      -2.46810683        0      -0.27687623      -0.74167697      -0.61988934     -12.95304815      -0.72940412      -0.92193821       1.01738369       0.07586222
H        0.76021563      -2.64962040      -1.64350389        0      -0.30651884       0.73599416       0.12387532     -12.36815566      -3.02518044       2.10756556      -0.78309762       0.10095273
H       -1.18579321      -1.54848730      -1.72860590        0      -0.19758941      -0.44300934      -0.45268177     -12.67204513       2.14261928      -1.09549183      -0.41365145       0.10043407
12
Properties=species:S:1:pos:R:3:molID:I:1:momenta:R:3:energies:R:1:forces:R:3:charge:R:1 Nmols=1 Comp=DMC(1) energy=-587.0938818318681 free_energy=-587.0938818318681 dipole="0.06960023298215942 -0.16492876768388318 -0.06152265601448166" pbc="F F F"
C       -0.00801243       0.09222593      -0.00290030        0      -1.31053757      -1.10016360      -1.83235035     -59.06798166      -0.80294069      -1.95385708      -1.53412146       0.47665527
O       -0.40879092       0.88912237      -0.83968896        0       1.58450632       0.91062138      -0.72618618    -112.45144274       0.79911624      -0.86923950       0.97071483      -0.42418533
O        0.18371194       0.26998926       1.28830709        0       2.43026672       0.24726937       1.87640182    -111.08795094       1.95169877      -2.13435843      -1.23490973      -0.24305853
O        0.17357200      -1.22489151      -0.29879069        0      -2.61341341       0.14529898      -1.04946460    -111.16091073      -0.43914582       1.19708118      -2.08185480      -0.24516385
C        0.18898779       1.60347310       1.61691578        0       0.55671960       0.02679388      -0.72378374     -58.74901437      -0.08846921       2.84525348      -2.75703269      -0.01573222
C       -0.07948490      -1.59816837      -1.68413975        0      -0.97348179      -0.36022521       0.96901810     -58.05997464       1.00691714      -5.55336248      -1.20389368       0.05049030
H        1.02781486       2.13078267       2.18321478        0       0.20355888       0.31505574       0.56140290     -13.19249424      -0.52466519      -1.32201680      -1.28085110       0.05357677
H       -0.10331294       1.98312650       0.35434555        0      -0.19297858       0.01648868      -0.06977976     -12.21268602       0.83291387       0.98591471       3.89027482       0.09816533
H       -0.64734018       1.57333777       2.21554033        0       0.23161036       0.18522308       0.44251629     -12.82927416      -2.12994110       1.47005914       1.57477965       0.06945274
H        0.17563084      -1.14256570      -2.71838261        0       0.12917590       0.26208708       0.23067448     -12.80975746       0.16684822       0.25066359       2.62482578       0.08499885
H        0.56782205      -2.87194009      -1.72935475        0      -0.04043267      -0.03023149      -0.05222457     -12.62432864      -0.82838361       3.52417116       0.10997782       0.02414803
H       -1.02539758      -2.17720959      -1.88704507        0      -0.00499375      -0.61821790       0.37377561     -12.84806625       0.05605138       1.55969103       0.92209055       0.07065264
12
Properties=species:S:1:pos:R:3:molID:I:1:momenta:R:3:energies:R:1:forces:R:3:charge:R:1 Nmols=1 Comp=DMC(1) energy=-588.3647203986666 free_energy=-588.3647203986666 dipole="-0.08831552317477845 -0.27092842669715056 -0.12351544993508004" pbc="F F F"
C       -0.10631074      -0.00047313      -0.09518441        0      -0.13434845       0.29313718      -0.22365294     -59.04950971       1.90519574       3.89627326       2.74211646       0.47846837
O       -0.29353364       0.91531299      -0.83672733        0       1.59948208      -0.44834262       0.63463150    -112.40245432      -0.67783769       0.21231741      -0.26829722      -0.43225292
O        0.36733230       0.25844987       1.29304906        0       2.32872070       0.28141669      -1.86112861    -111.76179867      -2.64453573       1.05642509      -3.31248733      -0.32878420
O        0.01674898      -1.20048281      -0.35563702        0      -1.90165341      -0.28892879       0.23739352    -110.48943665       0.70218521      -4.00309538       3.37855106      -0.21899396
C        0.14764635       1.65328362       1.61372812        0      -1.36744992      -0.12769387       1.10014812     -58.95483382       1.36531950       1.25489850      -0.89754926       0.03122453
C       -0.14810603      -1.74556865      -1.62064284        0      -0.79322175      -1.28848315       0.54102672     -59.01885347       2.27413195       1.71703775      -1.12293078       0.01067283
H        1.11658147       1.88430200       2.02255672        0       0.71576521      -0.08647293      -0.08017698     -12.89973951       0.41796053       0.59611715       0.39011046       0.06725405
H       -0.08938932       2.53263233       0.85113680        0      -0.10914667       0.90210397      -0.13773415     -12.95934807       0.64745100      -2.50410804       0.32813101       0.05840413
H       -0.58522440       1.86957698       2.33716661        0      -0.03522072       0.18049930      -0.08814859     -13.10820485      -1.07425347      -0.70792341       1.12221723       0.05590511
H        0.08997448      -0.72997477      -2.12983249        0      -0.53824585       0.24783803       0.25084131     -12.51493516      -0.92879187      -1.84987187      -1.24710124       0.08931563
H        0.86527573      -2.43286923      -1.76343244        0       0.87017429      -0.03579082      -0.16590414     -12.58053397      -3.08097884       0.95323474       0.07617428       0.08821635
H       -1.21674584      -2.04616172      -1.57250800        0      -0.63485549       0.37071701      -0.20729576     -12.62507219       1.09415367      -0.62130521      -1.18893467       0.10057006
12
Properties=species:S:1:pos:R:3:molID:I:1:momenta:R:3:energies:R:1:forces:R:3:charge:R:1 Nmols=1 Comp=DMC(1) energy=-589.3742354058338 free_energy=-589.3742354058338 dipole="-0.04762006058538568 -0.01580174215220879 0.22683837628005515" pbc="F F F"
C       -0.03651497       0.05948989      -0.01255827        0       1.78044429       0.22915485       0.89927297     -59.37677772      -0.18222784      -0.01354631      -4.81146961       0.48620472
O       -0.20662241       0.93535988      -0.84775358        0       1.18315352       0.54560825      -0.55357074    -112.74465723      -0.69985705      -1.44985802       0.05892319      -0.48036204
O        0.41577808       0.32654546       1.11851098        0       0.05005662       1.44011932      -2.66345412    -110.83231910       0.28778806       0.55519957       4.67475334      -0.24429454
O       -0.06138739      -1.30633550      -0.25891218        0      -1.14366804      -1.55605589       2.23984547    -111.38749508      -0.38676751       0.88557768      -0.60737579      -0.27515179
C        0.13844869       1.68514250       1.69008195        0      -0.09025188      -0.38937904       1.62266775     -58.91296726      -2.33461234      -3.39209879      -0.71294394       0.00001236
C       -0.23477312      -1.74045245      -1.61365700        0      -2.10263496       1.58080560       0.20250095     -59.05865293       0.59973013       0.75583804      -1.19417515       0.03269518
H        1.01129916       1.91152509       2.10399498        0      -0.03626711       0.23160581       0.77455848     -12.59039910       3.47276075       0.92324546       2.42011405       0.10310599
H        0.04959213       2.31438980       0.87501374        0      -0.18450615       0.03350424      -0.97034638     -12.64175367      -1.05803119       1.37256991      -1.58812782       0.10772781
H       -0.70988064       1.58728193       2.40513574        0       0.12415501      -0.48688513      -0.25754794     -12.85213684       0.58192319       0.22909346      -0.72755794       0.08649734
H       -0.35219914      -0.94710261      -2.35332186        0      -0.31060345       0.08595573      -0.46005650     -12.96921658       0.13897788       1.00704457       0.50587784       0.06395987
H        0.60113665      -2.28816552      -2.03729175        0       0.46491658      -0.59821371      -0.67153833     -13.01619751       0.80270331      -0.16131220       0.79188552       0.05721835
H       -1.05927704      -2.34797502      -1.90305698        0       0.26520557      -1.11622005      -0.16233160     -12.99166237      -1.22238739      -0.71175337       1.19009630       0.06238675
12
Properties=species:S:1:pos:R:3:molID:I:1:momenta:R:3:energies:R:1:forces:R:3:charge:R:1 Nmols=1 Comp=DMC(1) energy=-588.29473140461 free_energy=-588.29473140461 dipole="-0.08862803310952894 -0.09548988942452026 -0.0270560981065389" pbc="F F F"
C        0.04596888       0.05911619      -0.10095008        0       0.51753432      -0.80354203      -1.75548317     -59.00762916       0.40372633      -1.48687051       2.51406766       0.47974956
O       -0.14426840       0.91605324      -0.89030508        0       0.03253083      -0.57742543      -1.37810403    -112.14038383      -0.66699564      -0.06040800      -1.79516464      -0.40341990
O        0.49197981       0.41543994       1.14214564        0       2.25380993       0.43094095       2.49458767    -111.05884088       1.19002563      -3.57754287      -0.10722299      -0.28776195
O       -0.13036593      -1.34489389      -0.19212717        0      -0.57015274       0.58339196      -0.26082130    -111.82380054       0.05820506       3.32451052      -2.17761357      -0.31995947
C        0.14455048       1.64220851       1.71583439        0      -0.04868959      -1.11981157       0.05673816     -58.94707402      -4.13112753      -5.35346862       1.90415461       0.02206094
C       -0.36104979      -1.72232787      -1.68597196        0      -1.08095056      -0.74876943      -0.74952079     -58.78505834      -1.03804804       3.88558323       4.04582012      -0.01127623
H        0.72852276       1.96471740       2.43715156        0      -0.35379693      -0.09426934      -0.07490853     -12.80566682       3.24988551       1.40676367       2.67905114       0.09303941
H       -0.12094585       2.13594396       0.94445327        0      -0.27335668       0.44516182       0.48511925     -12.57279886      -1.45405554       4.90015082      -4.88707904       0.09576062
H       -0.85199061       1.34440133       2.23297935        0      -0.09161300      -0.01466003      -0.16720643     -12.95829118       0.84248104       0.79211700      -0.10528384       0.03903644
H       -0.71420547      -0.83175819      -2.18078431        0      -0.68260108       0.40611063       0.24368575     -12.81218022      -0.66130702      -0.22149818      -0.14558242       0.10022688
H        0.55270013      -1.94420559      -1.95497492        0       0.19652026       1.01129889       0.57475156     -12.72347453       4.92640457      -0.89148780      -1.90765856       0.08811928
H       -0.83788606      -2.59395496      -1.58669186        0       0.10076523       0.48157358       0.53116187     -12.65953303      -2.71919437      -2.71784926      -0.01748847       0.10442442
12
Properties=species:S:1:pos:R:3:molID:I:1:momenta:R:3:energies:R:1:forces:R:3:charge:R:1 Nmols=1 Comp=DMC(1) energy=-589.3418434003252 free_energy=-589.3418434003252 dipole="-0.17287815046257501 -0.28497759765336117 -0.020594933677538042" pbc="F F F"
C        0.10092934       0.00279943      -0.13062512        0       0.67137945       0.08221303       0.37673615     -58.90032449      -0.28294395       5.20520620       0.47463575       0.46331571
O       -0.13654418       0.89075505      -0.97700681        0       0.88198334      -0.44869990      -0.14929008    -112.57807355       1.08309582      -2.43590531       2.65697126      -0.44408126
O        0.58901175       0.33095435       1.22068458        0       0.73230279      -1.93649806      -0.43669551    -111.65136226      -1.95522436       0.25099106      -3.12146401      -0.31070733
O       -0.17238036      -1.22920078      -0.25979972        0      -0.44852096       2.16284322      -1.55282138    -110.81106576       0.34902767      -1.39271642       0.85554192      -0.22005865
C        0.06130886       1.57184703       1.72848663        0      -0.71614029       0.26918064       0.14284302     -59.10127691       0.01146925      -1.93022111       2.73330725       0.03570633
C       -0.38147568      -1.65092100      -1.61558087        0      -0.08489234       1.08871847       2.43778900     -59.13399171      -1.71545748       0.97933940       1.57133697       0.00652253
H        0.79825024       1.83563816       2.49143908        0      -0.32515093      -0.34928097      -0.56170352     -12.89012482       0.00871683       0.01953204       0.13691657       0.06988479
H       -0.07567351       2.41929879       1.15376774        0       0.58141107      -0.77407475       0.41509070     -13.00807266       0.00254538       1.03138661      -2.04636611       0.07359498
H       -0.92145744       1.41596483       2.28340120        0      -0.22607878      -0.06241210       0.41172998     -13.15658189       0.90649619      -0.25597592      -0.67298648       0.04001868
H       -1.16841675      -1.00561006      -1.99859922        0      -0.60039498      -0.19191661      -0.08990272     -12.75651820       0.23116637       0.46156147      -0.66676811       0.08649889
H        0.57123472      -1.50520361      -2.01687668        0      -1.00460919      -0.20370897      -0.58472656     -12.70551893       0.94482864      -0.53062988      -1.52583727       0.09918354
H       -0.87837727      -2.57546612      -1.47362894        0       0.53871083       0.36363601      -0.40904908     -12.64893223       0.41627964      -1.40256811      -0.39528775       0.10012177
12
Properties=species:S:1:pos:R:3:molID:I:1:momenta:R:3:energies:R:1:forces:R:3:charge:R:1 Nmols=1 Comp=DMC(1) energy=-588.6180973950823 free_energy=-588.6180973950823 dipole="-0.0889789165603767 0.07927033912018679 0.2640653013866306" pbc="F F F"
C        0.12518625       0.14523465      -0.07294210        0       0.52188133       1.45202534       1.47553666     -59.26082295      -0.24139466      -4.49636758       0.84425066       0.50509417
O       -0.11141177       0.85015429      -0.94253267        0      -0.28566431       1.23231558       0.56265765    -112.03509307      -0.49363528       5.32213660      -3.26858308      -0.42335691
O        0.56218752       0.23268500       1.13310371        0      -1.00388006      -1.05621426      -1.71941432    -111.39727633      -0.22065705       2.14008641       2.15730905      -0.27844893
O       -0.14609663      -1.14940755      -0.29166108        0       0.86798728       0.51592807       0.22613235    -110.74577708       1.04579662      -1.46230084       1.90184670      -0.25320225
C        0.05600948       1.49026240       1.74830336        0       2.38419254      -1.09325645      -0.58377828     -58.86200020       1.95725653      -0.69869860       1.66163341       0.01616690
C       -0.46500521      -1.57110008      -1.51471060        0      -0.83447451      -1.29970554      -2.01878556     -58.89571497       2.75990441      -4.34412427      -4.57672132       0.05987981
H        0.87036570       1.82236074       2.56133451        0      -0.48181466       0.14062263      -0.06631795     -12.82701500      -1.62810581      -0.72601224      -1.64364268       0.07227850
H        0.07952058       2.21912220       0.91578354        0      -0.47363503      -0.70999658       0.59437545     -12.76049581      -0.75261599      -0.15178750       0.82713182       0.09635762
H       -0.89155066       1.18412997       2.31553074        0      -0.39835962      -0.27670583       0.06196096     -12.82992187       1.11044943       0.93736181      -1.13775804       0.08286456
H       -1.32282042      -1.29063704      -1.99211695        0      -0.46213475      -0.14116509       0.18318412     -12.97903255      -2.87614740       0.99721899      -0.13290943       0.06145829
H        0.22298589      -1.46219173      -2.52509083        0      -0.32957736       0.52516064       0.67173932     -13.06114939      -0.03570494       0.88894398       2.50747680       0.01543928
H       -0.38562117      -2.73873022      -1.56444048        0       0.49547915       0.71099150       0.61270958     -12.96379817      -0.62514586       1.59354323       0.85996612       0.04546896
12
Properties=species:S:1:pos:R:3:molID:I:1:momenta:R:3:energies:R:1:forces:R:3:charge:R:1 Nmols=1 Comp=DMC(1) energy=-587.2393202296604 free_energy=-587.2393202296604 dipole="-0.17180124713346967 -0.24173089505247142 0.07268788866201394" pbc="F F F"
C        0.08146925       0.12757795      -0.11977247        0      -1.48946268      -0.56279048      -2.71962939     -59.21810260       0.23391503       0.23344797       0.04104022       0.48397633
O       -0.11994233       0.98704937      -0.94681991        0      -0.38026264       2.78508023       0.09338602    -112.62224785       0.21842148      -0.89928484       1.07182549      -0.43818220
O        0.51019344       0.23795276       1.15978073        0       0.04209136       0.61455615       2.23256034    -110.80354711       1.82521363      -0.89524862      -1.50372404      -0.23930648
O       -0.05941369      -1.16389339      -0.24379759        0       1.39180171      -0.66243286       0.59077810    -111.52785316      -1.16168988      -0.74338284      -1.91332569      -0.31375797
C        0.17080290       1.35947906       1.78276176        0       0.16931172      -0.54120008       0.10801150     -58.66679477      -2.42718605       6.39339098       0.46595606       0.05432575
C       -0.53462083      -1.65819766      -1.66263293        0      -0.14068396      -0.27387232      -0.27449735     -58.38647805       6.36362051       1.28742470       3.23481883      -0.01873270
H        0.76406687       1.97303705       2.62921982        0       0.19331379      -0.32577342      -0.19727430     -12.99572920      -0.59060982      -1.97150328      -2.20345666       0.05883288
H       -0.32766860       2.28541191       0.97646084        0       0.54939546      -0.22148817       0.32332873     -12.92947623       2.35902816      -1.84670233       1.31871149       0.01500831
H       -0.81968852       1.17665050       2.08943044        0      -0.33278228      -0.08844675       0.35270135     -12.85057872      -1.37960885      -0.31214710       2.03784301       0.05201031
H       -1.52407266      -1.44429831      -1.65074260        0       0.39246069      -0.34977655       0.13589885     -12.78229111      -2.59838227       0.49111675      -0.60840740       0.10373354
H        0.25343266      -0.76803611      -2.21125471        0      -0.40024052      -0.22310662       0.04148136     -12.16101091      -2.39127198      -3.13921535       0.24463294       0.11649977
H       -0.23475378      -2.71843743      -1.29568713        0       0.00505735      -0.15074914      -0.68674522     -12.29521053      -0.45144997       1.40210395      -2.18591424       0.12559248
12
Properties=species:S:1:pos:R:3:molID:I:1:momenta:R:3:energies:R:1:forces:R:3:charge:R:1 Nmols=1 Comp=DMC(1) energy=-586.2432776028058 free_energy=-586.2432776028058 dipole="-0.26774458673241996 -0.3045775711415937 -0.2095163446192018" pbc="F F F"
C        0.00375661       0.12330880      -0.24721092        0       0.28892360       0.29285364       0.46477638     -58.46775265       1.96184415       0.48471661       3.80952589       0.46222040
O       -0.14658431       1.10923936      -0.91400607        0      -0.87793994       1.16583689       0.58112750    -111.96772423      -0.17706532      -2.37392510       0.71033496      -0.34878391
O        0.51165799       0.21958803       1.19877764        0      -0.31918567      -0.59413781      -0.66535229    -111.71020075      -2.52032341       0.26006565      -3.17480870      -0.35044055
O        0.00993699      -1.20060787      -0.28971384        0       0.42503425      -1.03239985      -2.53226048    -110.68981546      -0.56224884       0.38689047      -3.77131133      -0.18025107
C        0.06985783       1.37508063       1.87952502        0      -0.50279630       0.15512939       1.59769716     -58.60425064       7.43132398       2.21962023      -2.71524975       0.03903426
C       -0.46268463      -1.69750277      -1.56242182        0      -0.08139888      -0.79360236       1.11730718     -58.00580414      -1.33005200       0.14554465      -5.68060465       0.03809258
H        1.14292149       1.45048800       2.48595103        0       0.15317067      -0.32653843      -0.03587315     -12.75156274      -2.62663622       0.82763212      -0.52382014       0.05143201
H        0.22065436       2.38777310       0.93969500        0      -0.03015368       0.34416842      -0.09990007     -12.74867589      -1.17822590      -2.55196835       2.90242431       0.04019661
H       -0.69131398       1.23138771       2.53833494        0       0.38930288       0.45976326       0.11802880     -13.02502958      -2.20508994       0.06669776       0.91813995       0.07873084
H       -1.59552122      -1.66440268      -1.61839319        0       0.63454726      -0.21450683       0.07429221     -12.96679247       1.21486134      -0.11340963       0.54705540       0.06166497
H       -0.23351171      -1.00037270      -2.74655496        0      -0.35277237       0.20389095      -0.38953818     -12.74555570      -0.18767779      -0.43478477       3.62622450       0.02190194
H       -0.18025089      -2.63425149      -2.28099347        0       0.27326816       0.33954272      -0.23030508     -12.56011332       0.17928995       1.08292035       3.35208957       0.08620191
12
Properties=species:S:1:pos:R:3:molID:I:1:momenta:R:3:energies:R:1:forces:R:3:charge:R:1 Nmols=1 Comp=DMC(1) energy=-588.2817032631908 free_energy=-588.2817032631908 dipole="-0.11208051107022456 -0.0699197277817345 0.4469236606458177" pbc="F F F"
C        0.04502268       0.14303263      -0.10970402        0       0.28181037       0.95431419       1.38537248     -59.23695449      -1.08042696       1.14409108      -4.24061930       0.47755099
O       -0.18496998       1.10602111      -0.84787217        0       0.51978203      -1.65587440       1.50825036    -112.72318912       0.00366607      -2.41414691       0.98790774      -0.46358075
O        0.39958741       0.21932818       1.09463438        0      -2.59825689      -0.00197793      -1.39144543    -110.68522115       0.23507292       0.41228038       4.45421851      -0.22078993
O        0.05500538      -1.21178119      -0.49041212        0       0.71759154       0.61159257      -2.10685265    -111.28771704       1.02047326       1.99063254       4.64215135      -0.30409768
C        0.19090172       1.40738169       1.96374876        0       1.48434400      -0.19410439       1.48203597     -58.73020939      -0.70182999       1.53979525      -1.41219627       0.01754544
C       -0.46554174      -1.72971462      -1.62160914        0      -0.82273218      -0.84326394      -1.00932292     -59.03097012      -0.96256728      -1.33474369      -0.55012195       0.04490347
H        1.12530491       1.56711870       2.58656857        0       0.52057342       0.42625390       0.40618031     -12.71599598      -0.95756730       0.17160164      -1.43646919       0.09530666
H       -0.31702444       2.27839158       1.31148986        0      -0.79784480       0.73424882      -0.36071560     -12.62496906       2.25523526      -1.26525631       0.65246836       0.08572584
H       -0.63761328       1.42935263       2.67912314        0       0.24104355      -0.46178965      -0.17478617     -12.80795966       0.01420482      -1.64159585       0.14776151       0.07839952
H       -1.65032642      -2.03587510      -1.45104155        0       0.46110738      -0.65162670       0.11008042     -13.12638930       2.70606046       0.10524548      -0.38504787       0.02732636
H       -0.48504140      -0.80084366      -2.18489202        0      -0.15973206       1.10215425      -0.42125048     -12.69299614       0.02279194      -0.78877609      -1.99394573       0.08474041
H        0.34900588      -2.65798310      -1.73507784        0       0.15231363      -0.01992671       0.57245372     -12.61913182      -2.55511320       2.08087247      -0.86610714       0.07696967
12
Properties=species:S:1:pos:R:3:molID:I:1:momenta:R:3:energies:R:1:forces:R:3:charge:R:1 Nmols=1 Comp=DMC(1) energy=-587.5353826689022 free_energy=-587.5353826689022 dipole="-0.08215513836322105 -0.18874091074500068 0.1902428032686356" pbc="F F F"
C        0.04840294       0.13982499      -0.12442422        0       0.41712917      -1.61038599       0.06664519     -59.63056977       0.12645429      -1.21071259       0.89597936       0.50694938
O       -0.15012468       1.03461068      -0.82909552        0       0.21514799       0.95448876      -1.73171557    -112.32520931      -0.92604399       3.75494530      -2.98196669      -0.45720630
O        0.27092831       0.24212008       1.16138848        0      -1.45932411       0.05942739       1.90691832    -111.19754813       1.53879284      -1.11490621       1.07014677      -0.30370875
O        0.07901602      -1.11805355      -0.50010840        0      -0.21228937       1.13821996       1.04761136    -111.32146624      -0.55393956      -2.20055333      -0.00264682      -0.30700983
C        0.25989459       1.43730676       2.02207907        0      -0.77780261      -0.56175753       0.25604705     -58.57481476       1.65046822     -10.00038521       4.19253898       0.00304745
C       -0.50756767      -1.73216199      -1.73740623        0      -0.04844517       0.23905739      -0.34448128     -58.57132980       3.16858487      -7.53867008       7.83653707       0.02223694
H        1.16423141       1.87324873       2.34753099        0       0.52166180       0.21300184      -0.42895108     -12.85301194       1.88467699      -0.93228741       0.71684023       0.07896765
H       -0.08610636       2.15484584       1.59532147        0       0.30287503       0.17950020       0.34650666     -12.44933965      -5.58484430       8.32007365      -5.27051940       0.09717855
H       -0.35297780       0.81008721       2.75575806        0       0.74671035       0.09701993       0.11885547     -12.42085019       0.75610155       2.22298042       0.25576385       0.10549302
H       -1.36665225      -2.47038676      -1.40733435        0       0.13049308       0.14239305       0.05609984     -12.85682934       1.24586935       1.85212063      -0.58444540       0.07287211
H       -0.64150135      -1.11315192      -2.41610502        0      -0.29612636      -0.81606861      -0.49856454     -12.63454796      -1.53693352       5.44397996      -5.96290003       0.10553732
H        0.39596284      -2.48587797      -1.94582411        0       0.45997021      -0.03489639      -0.79497141     -12.69986557      -1.76918673       1.40341488      -0.16532792       0.07564246
12
Properties=species:S:1:pos:R:3:molID:I:1:momenta:R:3:energies:R:1:forces:R:3:charge:R:1 Nmols=1 Comp=DMC(1) energy=-587.9773402827249 free_energy=-587.9773402827249 dipole="-0.0267896008874792 -0.32575721079665665 0.04156078457376243" pbc="F F F"
C        0.07994113       0.14359971      -0.11550893        0      -0.49142526       2.27655523      -0.12268415     -59.10308920      -1.46884133       2.36688022      -1.24934310       0.46932883
O       -0.11661465       1.07784379      -0.91054641        0       0.96511740      -0.40369288      -0.55751455    -112.58771652       0.82774454      -2.00552139       2.56805850      -0.44772310
O        0.20888993       0.22515930       1.28059728        0      -1.22500034      -0.76601804       1.61490043    -111.03930305      -1.51483821      -2.96010080      -2.35466261      -0.26470619
O        0.01546373      -1.13311174      -0.47294766        0      -0.95411631      -1.35556972      -0.27469602    -111.05365850       0.29158842      -0.37767679      -0.98566024      -0.26149048
C        0.26358094       1.35608950       2.03581324        0       0.63520307       0.03816217       0.03232881     -58.91674799      -1.20148377       3.61676940       1.18687261       0.05565802
C       -0.42451745      -1.75488188      -1.79119556        0       0.83216572       0.91174014      -1.46002324     -58.52560402      -3.11482509       2.28880963       0.57695360       0.01694477
H        1.27731094       1.58083070       1.89217606        0      -0.43657651      -0.36605548      -0.43877232     -12.79807243       1.66434987       1.71136693       0.29278910       0.06523439
H       -0.43633805       2.32110814       1.63325075        0       0.07993126      -1.13110977       0.52842825     -13.08588821       1.54031321      -2.53990446       0.91266478       0.03404273
H        0.14761684       1.29572489       3.24718893        0       0.13071798       0.61780674      -0.21276011     -12.91916457      -0.40230620      -0.68791377      -2.92934532       0.05856940
H       -1.31665594      -2.29649702      -1.31351214        0       0.01808494      -0.06079690       0.11753015     -12.47716263       1.70897373      -0.30426997      -1.35870595       0.10755655
H       -0.93876553      -1.15735903      -2.71120948        0      -0.08693887       0.21866619       1.15382797     -12.79343564       0.66010031       0.20815932       2.56527550       0.06278116
H        0.35321327      -2.11012166      -2.41399474        0       0.53283692       0.02031232      -0.38056522     -12.67749753       1.00922450      -1.31659832       0.77510314       0.10380392
12
Properties=species:S:1:pos:R:3:molID:I:1:momenta:R:3:energies:R:1:forces:R:3:charge:R:1 Nmols=1 Comp=DMC(1) energy=-587.5248679535521 free_energy=-587.5248679535521 dipole="-0.010234867504363919 0.0356120249667136 0.19352993998133353" pbc="F F F"
C       -0.02229598       0.20796304      -0.10149113        0      -1.63775166      -1.86452125       0.61812331     -58.79472228       0.77194684      -4.02655539       0.83115222       0.47181665
O       -0.03066171       1.07446151      -0.90936114        0       1.20361461       0.93980847      -0.04106112    -112.03189692      -0.31526363       0.40514874       0.89875878      -0.36922679
O        0.08824766       0.09636751       1.27888351        0      -2.13359179      -1.64921170      -0.81614635    -111.34326980       0.91124857       2.74128977      -1.09343628      -0.25868296
O       -0.00147553      -1.18506433      -0.48419715        0       0.32992854      -0.15785022      -0.04783698    -111.41430494       0.23592814       1.24399625       2.29120454      -0.32404825
C        0.35097349       1.37098869       2.01002973        0       1.16379226       0.40315916      -0.83479086     -58.19401157      -1.81242775       1.82015317       0.15754396       0.04916310
C       -0.38011783      -1.62701527      -1.78994468        0      -0.30707764       2.79182858       1.33132435     -58.97653118      -2.49747597       1.21127209       1.71537561       0.01537706
H        1.32393824       2.03681193       1.66937211        0      -0.58617921       0.30614565       0.05876806     -12.93035327      -2.46138137      -1.89446133       0.38744308       0.06388252
H       -0.79029109       2.04335141       1.74045367        0       0.32753434      -0.02999700       0.38181587     -12.76758821       3.43024469      -1.40013162       0.96534710       0.04274580
H        0.43317412       1.26872750       3.23527809        0       0.37876700      -0.53210394      -0.14325327     -12.78658576      -0.37608726      -0.35741999      -3.27552550       0.07723659
H       -0.86041949      -2.68789446      -1.73182368        0       0.31890002      -0.41423388      -0.53039553     -12.91047798      -0.69705911       2.11910435       0.51663858       0.05953434
H       -0.99274446      -0.61499695      -1.98179735        0       0.49622439      -0.07337559       0.06526579     -12.57418054       0.94044116      -2.75774142      -1.63425740       0.09108074
H        0.48460671      -1.99738427      -2.22547423        0       0.44583913       0.28035172      -0.04181326     -12.80094550       1.86988568       0.89534539      -1.76024470       0.08112121
12
Properties=species:S:1:pos:R:3:molID:I:1:momenta:R:3:energies:R:1:forces:R:3:charge:R:1 Nmols=1 Comp=DMC(1) energy=-587.7186323134291 free_energy=-587.7186323134291 dipole="-0.08563445178123583 -0.17189277179662504 0.1331365099986215" pbc="F F F"
C       -0.11438769       0.05160697      -0.09883611        0       0.00063724      -0.82739567      -0.33074121     -59.31042775       2.18191307       4.40726662      -0.97887247       0.47484760
O        0.00767692       1.06496365      -0.82428484        0       0.12627735      -1.85841817       2.99145936    -112.91392082      -1.07554393      -2.96498824       1.67940207      -0.48537379
O        0.00268417       0.07556862       1.21024708        0      -1.20151574       1.02943764      -0.45182287    -111.21756527      -0.18035289       2.78123488       1.53533155      -0.26748053
O        0.00972671      -1.19227754      -0.42121398        0      -0.36597402      -0.04953782       1.57170858    -110.66255436      -1.60593486      -0.97947729      -0.58274912      -0.20379377
C        0.33955475       1.34485761       1.92732914        0      -0.47303724      -0.80108728      -1.29563304     -58.24908501      -0.07449332       0.88098031       0.71225303       0.03815976
C       -0.27613831      -1.46246603      -1.73140677        0       2.73022416       2.95550709      -1.64169450     -58.85172457       0.22105308       2.55512570      -4.94840944       0.02583662
H        1.07778543       2.17511295       1.34285161        0      -0.13608507      -0.40304286      -0.66310684     -12.76078108      -1.55379383      -2.80960784       1.23488898       0.07507972
H       -0.63409512       2.16341460       2.22633519        0      -0.35870638      -0.04353182       0.44469544     -12.80246645       2.23719291      -2.86311490      -0.75287595       0.05463787
H        0.79616755       0.73768712       2.85799796        0       0.52459492      -0.29334078      -0.13847736     -12.50453869      -0.80284194       2.33153788      -1.62113888       0.09822953
H       -0.85006459      -2.29273611      -2.00486387        0      -0.45868184      -0.12883310      -0.19124839     -12.92114886       0.01657414      -1.87589831       0.59081342       0.07720099
H       -0.83847702      -0.72137975      -2.50624473        0      -0.03704082      -0.26135857      -0.23850883     -12.77594911      -0.29138217       0.05969956       2.72129856       0.04437323
H        0.59912644      -1.23391517      -2.35935482        0      -0.35069256       0.68160134      -0.05663033     -12.74847033       0.92760973      -1.52275838       0.41005826       0.06828279
12
Properties=species:S:1:pos:R:3:molID:I:1:momenta:R:3:energies:R:1:forces:R:3:charge:R:1 Nmols=1 Comp=DMC(1) energy=-588.7094504417081 free_energy=-588.7094504417081 dipole="-0.009644807827178942 -0.2503764382933677 -0.08017770637434155" pbc="F F F"
C       -0.09833417       0.02933234      -0.04410194        0       0.79085603      -1.12293701       2.79813860     -59.38429211       1.33576933       0.49549411       0.97052155       0.49517204
O       -0.00538450       1.00404963      -0.71851532        0      -0.44011633       1.27371316      -1.20619873    -112.52349387      -0.32663851       0.83047766      -1.54046896      -0.45649387
O       -0.09069717       0.11625511       1.26678350        0      -1.87394491      -0.67393792       1.60813945    -110.88609331      -0.82418424      -4.36608878       1.25769771      -0.26493044
O        0.00455741      -1.21266998      -0.40686858        0      -0.14940478      -0.54948325      -0.94734008    -111.47243457      -0.06629921      -0.72419641      -2.59239736      -0.28881669
C        0.31180815       1.25599930       1.85647702        0       0.79964962      -1.59596160      -0.81242586     -59.11368562       1.44522425       2.74994649      -0.30360980       0.02782791
C       -0.16146349      -1.27951454      -1.93855212        0      -0.18411332       1.75351018      -2.39866808     -58.66756057       0.35401448       2.26015553       2.50045295       0.00186884
H        0.78479341       1.71060080       0.84916741        0       0.02432748       0.28967311      -0.34757900     -12.57021121      -0.84933584       1.14227152       2.71972453       0.08173739
H       -0.58643570       1.63906165       2.37491609        0      -0.72757786      -0.12425742       0.49866346     -12.94511573       0.43937837       0.92829670      -0.71156408       0.06058118
H        1.08011329       1.19014188       2.68944302        0       0.37052892       0.57851302       0.05199644     -13.12180099      -0.47086157      -0.65182446      -1.18283679       0.04909673
H       -0.34334989      -2.26822502      -2.06995722        0       1.19798650       0.07507404      -0.02596902     -12.71999603      -0.89524765      -2.87674707      -0.53181419       0.09624192
H       -1.11447463      -0.65140440      -1.92890738        0       0.16756637       0.15578878       0.58208264     -12.56802606       1.62413354      -0.52638064      -1.58610396       0.10411971
H        0.82968027      -1.09266844      -2.49796406        0       0.02424229      -0.05969510       0.19916018     -12.73674037      -1.76595295       0.73859535       1.00039840       0.09359527
12
Properties=species:S:1:pos:R:3:molID:I:1:momenta:R:3:energies:R:1:forces:R:3:charge:R:1 Nmols=1 Comp=DMC(1) energy=-589.0394967118465 free_energy=-589.0394967118465 dipole="0.12780463287974986 0.042537197895424185 0.12047071264154936" pbc="F F F"
C        0.01367231       0.03422937       0.05988483        0       1.01214184       0.70727292      -0.52773081     -58.95324366      -1.72975971      -0.07180696      -3.90214075       0.46343623
O       -0.06281303       1.01061941      -0.73164066        0      -1.07183036      -1.98275228       1.06389472    -112.67182268       0.66619122      -2.64048826       3.26737198      -0.45585474
O       -0.15071701      -0.02043568       1.38384151        0      -0.14603610      -2.38065710       1.95791666    -111.23344021       1.75730721       2.10303968      -2.13522142      -0.23789393
O        0.01818414      -1.23610860      -0.51088424        0       0.55295020       0.15537390      -2.37177941    -111.50484358      -0.18542821       2.03210934      -0.74516210      -0.28967819
C        0.31443007       1.27789756       1.84411493        0      -0.62722041       1.36711920       0.16036202     -58.89081735       1.06788489      -0.10395872       0.40754676       0.01449472
C       -0.14317136      -1.18711169      -1.99249265        0       1.49695047       0.70417643       0.84586681     -58.81915601       0.43489176       4.92347515       1.32669623       0.02369432
H        0.39261262       2.17040923       1.19153096        0      -0.47039349       0.66675770      -0.17695132     -12.76390270       0.50353549      -1.26449286      -0.91861082       0.08661098
H       -0.45738470       1.63598492       2.40929378        0      -0.15246339       0.34478410       0.48621307     -12.71994239      -1.94756653       0.56773911       2.52046429       0.08354593
H        1.25067124       1.14179110       2.41467051        0       0.42542889      -0.57676921      -0.00368748     -12.97431480      -0.45991720       0.02436140      -0.24367922       0.07003442
H       -0.12051633      -2.16824560      -2.22195075        0      -0.51203565       0.37035105      -0.45696641     -12.73259971      -0.11340860      -2.76934198      -1.12058374       0.10074074
H       -1.12503137      -0.58042851      -2.26275346        0      -0.14144166      -0.12445166      -1.02905642     -12.89582316       1.82954473      -1.38267709       0.55320675       0.07271135
H        0.76330256      -0.55247226      -2.46279996        0      -0.36605034       0.74879495       0.05191855     -12.87959047      -1.82327506      -1.41795881       0.99011204       0.06815816
12
Properties=species:S:1:pos:R:3:molID:I:1:momenta:R:3:energies:R:1:forces:R:3:charge:R:1 Nmols=1 Comp=DMC(1) energy=-588.8861192292023 free_energy=-588.8861192292023 dipole="0.13337033025227463 0.0508326482105666 0.1254351390003898" pbc="F F F"
C        0.01922113       0.00382263       0.02371756        0      -0.65203394      -2.08407541       0.49380641     -59.20290776      -1.64969039      -1.76299185       0.06285024       0.47986254
O       -0.10910116       0.96231379      -0.66835388        0      -0.80777113       1.19297725       0.38286141    -112.32776078       0.37228552       1.94189015       0.15101222      -0.43926157
O       -0.12530175      -0.08137766       1.37200520        0       0.68112325       0.04717959      -1.96265441    -111.72863770       0.82546387       2.68427563      -1.25609415      -0.30664196
O        0.06353695      -1.18520760      -0.62220359        0       1.06692984       0.41625576      -1.06628539    -111.00278252       0.01361492      -0.56462360       3.64683226      -0.25521979
C        0.22259535       1.35959587       1.91922876        0      -1.55277405      -0.28762578       2.09652586     -58.70147849       1.39725713      -4.19613189      -1.42970733      -0.01071267
C       -0.08846509      -1.12900953      -1.96401962        0      -0.11407279       0.41559771      -0.41504985     -59.13533171       2.64928145       2.22932917      -1.29536139       0.03268866
H        0.21846710       1.99303738       1.07082630        0      -0.06800323      -0.09406897      -0.43104965     -12.68966520      -0.24909241       0.76501764      -0.19901494       0.11675106
H       -0.27483578       1.53629342       2.78892993        0       0.19465649      -0.26659122      -0.08513122     -12.76161494      -2.23740638       0.63962758       1.60814648       0.10016522
H        1.19080428       1.07265724       2.27984688        0       0.53119155       0.28730101       0.10603836     -12.74938877       1.18552861       0.59767768      -0.06826294       0.08463156
H       -0.08559115      -2.10859921      -2.29317347        0       1.04308116       0.19428962       0.37244755     -12.74390832       1.64264157      -2.11228226      -0.90115180       0.08160766
H       -1.00164655      -0.88489153      -2.33925256        0      -0.75793444       0.11720015       0.72446202     -12.94292316      -3.29468841       1.75849032      -0.31594022       0.05737116
H        0.61863361      -0.27661085      -2.35664904        0       0.43560731       0.06156029      -0.21597108     -12.89971988      -0.65519549      -1.98027858      -0.00330843       0.05875815
12
Properties=species:S:1:pos:R:3:molID:I:1:momenta:R:3:energies:R:1:forces:R:3:charge:R:1 Nmols=1 Comp=DMC(1) energy=-588.7081725487899 free_energy=-588.7081725487899 dipole="0.0768475455736086 -0.0958155999673508 0.014226393379839504" pbc="F F F"
C       -0.09321831      -0.03941257       0.00081309        0      -1.26414663       1.61007617      -1.73125615     -59.41762920       1.21760391       2.34208275      -0.89459461       0.48569791
O       -0.13615532       1.01115558      -0.61554742        0      -0.24791345       0.30561627       1.92297163    -112.71151168      -0.42789645      -0.60403853      -0.22025264      -0.48393209
O       -0.07529203      -0.02494660       1.30978799        0       0.76268148       0.62975042       0.75429686    -111.16411003       0.62470837      -1.64792545       1.81853690      -0.27169813
O        0.13753716      -1.20047110      -0.59642622        0       0.89448944      -0.60544647       1.05205478    -111.51452661       0.02245459       0.69920307       0.09001921      -0.29455689
C        0.19720995       1.22114260       2.00324042        0      -0.24221375      -2.06626327       0.68351392     -59.08427599      -2.79930316      -0.79806870      -1.37348515       0.00949437
C       -0.08500557      -1.06796876      -2.06928096        0       0.37347624      -0.56286869      -1.68331434     -58.65511067       7.65302179      -2.58073740       1.11550729      -0.00630838
H       -0.05519742       1.90704444       1.23688281        0      -0.40338119       0.09432652       0.43397060     -12.67077926      -0.64053576       1.55211838      -0.61936687       0.09268729
H       -0.52709294       1.28583740       2.81531989        0       0.14478346      -0.29235827      -0.56505400     -12.89546525       0.51410521      -0.07565824       0.13163878       0.08226215
H        1.19002139       1.42569448       2.18084401        0      -0.02715254       0.13762090      -0.04293242     -12.91846706       2.13035837      -0.42192695       0.99034081       0.08121212
H        0.50396140      -1.97906428      -2.33509598        0      -0.34135623       0.43960914      -0.15276725     -12.49127152      -2.09834038      -0.76678697      -0.22682268       0.09773387
H       -1.02833789      -0.86636387      -1.98329912        0       0.40844247      -0.14518074      -0.36102917     -12.44706493      -5.03533730       0.80358656      -1.58344972       0.12257264
H        0.70120558      -0.48133675      -2.59206801        0      -0.05770931       0.45511801      -0.31045446     -12.73796035      -1.16083920       1.49815148       0.77192869       0.08483514
12
Properties=species:S:1:pos:R:3:molID:I:1:momenta:R:3:energies:R:1:forces:R:3:charge:R:1 Nmols=1 Comp=DMC(1) energy=-588.5263376380577 free_energy=-588.5263376380577 dipole="-0.12360639251877185 -0.1830487762231239 -0.3127521153931992" pbc="F F F"
C       -0.10398797       0.01208526      -0.05887691        0       0.76153361      -0.08970891       0.67076715     -59.05868637       1.47253558       1.11509035       1.94788066       0.47115034
O       -0.17247328       1.11664917      -0.54973712        0      -0.99468669       3.13212734       0.00696208    -112.47986015      -0.40064943      -1.53013306      -0.51819613      -0.43228740
O       -0.03077629      -0.06403610       1.36396305        0       0.46727280      -1.80069332       0.12929837    -111.11540865      -0.47166917      -2.53866713      -3.60873260      -0.26730887
O        0.16468922      -1.16764704      -0.58396296        0      -0.41860178       1.79062146      -1.13178739    -111.37593192      -1.19516823       0.71139693      -3.06962313      -0.25729989
C        0.13679268       1.09087151       1.98957636        0      -1.56785081      -0.43551339      -0.12483172     -59.29948286      -1.26225882       3.20587111       2.86083291       0.05660789
C        0.03404774      -1.11466206      -2.15804867        0       0.23922519      -1.45400936      -0.46140939     -58.40067479      -2.85049229      -1.17719937       0.95616642      -0.01529388
H       -0.19367794       2.05435042       1.55741312        0       0.42747725      -0.40914739       0.37468001     -13.07164427      -0.12646989      -0.63661621      -0.89002956       0.04947581
H       -0.50311330       1.07076000       2.90937898        0       0.50258110      -0.48379812       0.07654564     -13.03707286       0.49681350      -0.26578841      -0.18536994       0.04320003
H        1.14024937       1.30152827       2.28972626        0      -0.04727816      -0.35205079       0.14557144     -13.11981308       1.05506853      -0.27385764       0.23771518       0.04391111
H        0.08133459      -2.16635230      -2.67152544        0      -0.04536656       0.42086142       0.01242611     -12.41747641       1.76936346       2.09784503       1.24063704       0.11562215
H       -1.04109195      -1.02572318      -2.49126082        0       0.95617308      -0.33967350      -0.06987910     -12.77725989      -0.45322006      -0.16410325       1.34315707       0.06292261
H        0.19161789      -0.07627903      -2.44106979        0      -0.28047903       0.02098457       0.37165680     -12.37302639       1.96614681      -0.54383834      -0.31443793       0.12930011
12
Properties=species:S:1:pos:R:3:molID:I:1:momenta:R:3:energies:R:1:forces:R:3:charge:R:1 Nmols=1 Comp=DMC(1) energy=-588.7380031337108 free_energy=-588.7380031337108 dipole="0.15679386360853775 -0.041621109194717155 0.11015831103515948" pbc="F F F"
C       -0.02256582       0.12251886       0.00026821        0       0.59722506       2.20057009       0.01300173     -59.02500263      -0.83917380      -1.13761502      -1.81578042       0.47045622
O       -0.20200348       1.21113618      -0.51051625        0       0.68221400       0.06456046       1.13653695    -112.48202860       0.62590821      -1.70768130       0.63986791      -0.42566064
O       -0.03319162      -0.18728789       1.30601757        0      -0.72000532      -1.98028035      -1.71566598    -111.28102707      -0.56046482       1.65203699      -1.24786273      -0.25876412
O        0.09882322      -1.08824872      -0.72617027        0      -1.16812755       1.02232376      -2.45751775    -111.39403279       0.31385944       0.89792030       2.24389113      -0.29846215
C        0.08550529       1.05021953       2.09646912        0       0.28902067      -0.85046841       1.74858005     -58.94102106       0.00884944      -0.57813626       0.32309801       0.00920442
C        0.04053403      -1.17620788      -2.13122647        0      -0.43547474      -0.09941923       0.39434142     -58.86835637       0.26285947       0.10471291      -0.44292657       0.04278493
H       -0.20361222       2.02411762       1.48762906        0      -0.30029034      -0.62494249       0.40244854     -12.69972657       0.02136453      -2.11303985       1.47778904       0.09869123
H       -0.35046736       0.79674511       3.13821812        0      -0.19676929       0.21415633      -0.09688799     -12.79796314       0.18064698       0.85121793      -1.91855978       0.08564665
H        1.15629348       1.00368416       2.19355091        0      -0.15037512       0.04191069      -0.21044827     -12.78333523       0.67785185       0.95485808       0.60201041       0.07784366
H        0.86581769      -1.98649995      -2.52434908        0       0.62680855       0.44984689       0.69995011     -12.82373897      -2.61812444       0.92846677       1.13284243       0.06375065
H       -1.19793843      -1.30761368      -2.31070790        0       0.48591638      -0.19867480       0.49178281     -12.73010529       3.50007657       0.24892425      -0.58468267       0.06832930
H        0.61121374      -0.27226766      -2.47660393        0       0.28985770      -0.23958294      -0.40612162     -12.91166542      -1.57365343      -0.10166482      -0.40968676       0.06617985
12
Properties=species:S:1:pos:R:3:molID:I:1:momenta:R:3:energies:R:1:forces:R:3:charge:R:1 Nmols=1 Comp=DMC(1) energy=-588.1298506312444 free_energy=-588.1298506312444 dipole="0.16569483819186515 -0.08357764489319114 0.1525113406413813" pbc="F F F"
C        0.01759974       0.14488035      -0.02681446        0      -0.18612335      -1.05895883      -1.01905837     -59.38807510      -1.71676551      -0.13827218      -1.79298711       0.48521383
O       -0.15977376       1.26298675      -0.43050849        0       0.85405542       1.63353265       0.91111465    -112.59854461       0.70557344      -0.24478077      -0.35297443      -0.45169744
O       -0.08567489      -0.26337114       1.19914062        0      -0.38975536      -0.40707686      -0.90426556    -111.23877618       1.23784651       2.12671246       3.69189055      -0.26394323
O        0.07051719      -0.98828743      -0.77262456        0      -0.01572158       2.26155375       1.19711623    -111.03736107      -0.32632752       1.03314609       1.95049685      -0.26966345
C        0.10746966       0.91002386       2.20762068        0      -0.60102545      -2.48575562       0.45736892     -58.37064328      -2.82294953       1.70761554      -2.23053891       0.01380886
C        0.09699990      -1.13303955      -2.13345544        0       0.92427719       1.01112833      -0.40793655     -58.76295560      -1.28588865      -2.85005522      -1.60768554       0.05352860
H       -0.51557900       1.85726448       1.61325407        0       0.18350871      -0.15272472      -0.05961141     -12.56481836       1.96762964      -2.10098357       1.16482075       0.07877489
H       -0.58082836       0.86920709       3.09992422        0       0.30079174      -0.44634508       0.13982360     -12.80022029       1.29122180      -0.94902400      -0.82977309       0.09123027
H        1.16691287       1.23198925       2.37284150        0      -0.21094892       0.22537416       0.44166312     -12.91214140      -1.17634355      -0.81604397      -0.21039362       0.08755040
H        0.97467409      -1.94271676      -2.06650985        0       0.00371628      -0.48737622      -0.26627829     -12.49196669      -1.61076391       1.65661742      -1.92281048       0.08628640
H       -1.03668466      -1.75113894      -2.53751015        0       0.13409599      -0.29116494      -0.44881660     -12.94865471       2.93438994       1.36933440       1.21311924       0.01648558
H        0.06389453      -0.22959732      -2.79751279        0      -0.99687067       0.19781338      -0.04111975     -13.01569334       0.80237735      -0.79426619       0.92683579       0.07242529
12
Properties=species:S:1:pos:R:3:molID:I:1:momenta:R:3:energies:R:1:forces:R:3:charge:R:1 Nmols=1 Comp=DMC(1) energy=-588.9557396857284 free_energy=-588.9557396857284 dipole="0.06148756155114722 -0.3293884637802591 -0.2402089391326908" pbc="F F F"
C       -0.05301703       0.18868252      -0.09888290        0      -1.08424679       2.63080746       0.27543954     -59.31731847       0.56558070      -0.04220599       2.35876121       0.48903005
O       -0.09187713       1.32947435      -0.40779360        0       0.88233126       0.29296797      -0.36122042    -112.42976419      -0.17490194       0.80049018      -0.75923173      -0.42659872
O       -0.03787471      -0.24385965       1.22336848        0       1.30945364       0.30265996       1.14548528    -111.39133182       0.41985058      -0.48637158      -1.68110003      -0.30586135
O        0.04936973      -0.91113126      -0.73176462        0       0.18087282      -0.52067920       0.11015641    -110.63452539       1.04467732      -2.83026470      -2.11980373      -0.22268971
C        0.00172107       0.72516335       2.21555232        0      -1.08492446      -2.24355890      -0.00493814     -59.11005614       0.53180449       2.11024858      -1.05687057       0.02270998
C        0.11937696      -1.14591203      -2.15236284        0      -0.16915582      -0.44502790      -0.11866119     -58.91046063      -1.93048501       0.01681359      -2.03624151       0.02879197
H       -0.40870253       1.71462958       1.57745029        0      -0.39051329       0.43779820       0.08987506     -12.65807912       0.25519037      -1.87683312       2.58237204       0.07638183
H       -0.39352851       0.13398416       3.03914622        0      -0.33849899      -0.57152044      -0.46017171     -12.74341009      -0.91608917       1.21056331       0.24326823       0.08667408
H        1.04947544       0.99350393       2.53504310        0       0.11184098      -0.48930847      -0.22435881     -13.20680060      -0.54763511      -0.22189153      -0.58454645       0.03696907
H        0.94146507      -1.61576279      -2.79010650        0       0.83884964       0.74827745      -0.60566477     -12.78033875       0.07365032       0.64682318       2.16138885       0.07956195
H       -0.72777231      -1.89339387      -2.39333077        0      -0.66411809      -0.38856631       0.30214428     -12.81879401       0.75883246       1.20817624       0.51288847       0.06808155
H       -0.08794010      -0.18470287      -2.68442957        0       0.40810910       0.24615016      -0.14808554     -12.95486047      -0.08047502      -0.53554816       0.37911522       0.06694931
12
Properties=species:S:1:pos:R:3:molID:I:1:momenta:R:3:energies:R:1:forces:R:3:charge:R:1 Nmols=1 Comp=DMC(1) energy=-588.302613441351 free_energy=-588.302613441351 dipole="-0.1849547278995846 -0.17152221940932852 0.20654623524466875" pbc="F F F"
C       -0.10333671       0.24443023      -0.01524229        0      -0.38929857      -0.44788516       0.78212984     -58.83519246       2.51687355       0.52701342      -3.41092977       0.45487407
O       -0.03801370       1.40890272      -0.46608098        0       0.55545522       0.96945113      -0.56425612    -112.54459337      -0.97281895      -4.26860788       1.64830259      -0.42469742
O        0.03937130      -0.24320177       1.20090364        0       0.79351215      -0.30464686      -2.16284745    -110.58386951      -1.27147843       0.37192961      -2.56101681      -0.20381864
O        0.10147983      -0.97334293      -0.76828750        0       1.54436183      -0.33540618      -0.20300512    -111.47296013      -1.04910840       1.91972336       1.48104236      -0.33042028
C       -0.07745151       0.62071022       2.23931934        0      -1.05028245      -1.21869409       1.48780724     -59.09514181      -1.13142067       0.80293731       3.02147160       0.01221921
C        0.08241798      -1.12490957      -2.20247000        0       0.03033081       1.67575940      -0.23637713     -59.23395175       0.19837789       4.21474145       2.18047263       0.01001270
H       -0.74416999       1.50442416       2.33719793        0      -0.41369673       0.49591084       0.30974807     -12.75054370       1.41976901       1.06791934      -2.16203572       0.07299857
H       -0.86398009       0.16135452       2.85868910        0      -0.13264326      -0.04624834       0.36972731     -12.55890992       1.24651450      -1.56950097       1.38050192       0.07518297
H        0.97891229       0.72156788       2.54789015        0      -0.25473927      -0.09920352       0.31461534     -12.73782759      -0.97633351       0.49440114       1.00275169       0.08514520
H        1.10683428      -1.20883174      -2.36518843        0       0.17165550      -0.23962050       0.59258293     -12.69381389       1.29819024      -1.24975871      -1.26613200       0.09663009
H       -0.70960756      -1.73993551      -2.36276576        0      -0.28821693      -0.52858061      -0.72276630     -12.76613376      -1.28993124      -2.41323218      -1.01852917       0.09334469
H       -0.20761726      -0.13787246      -2.59215666        0      -0.56643830       0.07916389       0.03264140     -13.02967554       0.01136600       0.10243409      -0.29589930       0.05852884
12
Properties=species:S:1:pos:R:3:molID:I:1:momenta:R:3:energies:R:1:forces:R:3:charge:R:1 Nmols=1 Comp=DMC(1) energy=-588.1896680542442 free_energy=-588.1896680542442 dipole="-0.07908583363930166 -0.18077415404294445 0.08897182145372802" pbc="F F F"
C       -0.07030622       0.25566879      -0.09890477        0       0.98785048      -0.48456130      -1.77013843     -59.28573270       1.84873289      -4.80661871       1.46422195       0.49610299
O       -0.05462181       1.35140009      -0.45201875        0      -1.16024291      -1.27747523       0.19291413    -112.16179751      -0.74994596       3.26952659      -1.41747970      -0.40138903
O        0.07236663      -0.24425273       1.12934897        0       0.11378256       0.47672903       0.62489551    -111.22711667      -0.56346949       0.34776034       2.63210596      -0.29815810
O        0.12432381      -0.92804640      -0.76357528        0      -0.43701855       1.43498361      -0.14207859    -111.21628439      -1.18849990       0.61640305      -1.00488686      -0.28919348
C       -0.18867661       0.54772105       2.38680797        0      -0.80896053      -1.03896860       1.80657197     -58.77991995       4.42112891      -4.15188835       0.97113189      -0.00779485
C        0.05542631      -0.99289006      -2.19890944        0       0.12939670       0.49615385       0.01484885     -59.04580835       1.43615032       0.21510110       1.79931972       0.00537553
H       -0.36550663       1.43908863       2.00696285        0       0.31402666       0.00926702      -0.66231711     -12.56746465      -2.28436888       3.87968167      -0.68151998       0.11394379
H       -0.51273901      -0.13831121       3.16926812        0       0.13286961      -0.47550621       0.17881053     -12.58520524      -1.76643643       0.42044920      -0.87819611       0.10726704
H        0.80533956       0.72972626       2.98294281        0      -0.08115754       0.00110597       0.17481135     -12.86944323      -0.31385554      -0.11096812      -1.53153898       0.05028199
H        1.00919091      -1.28802525      -2.50926764        0       0.00352201       0.46247153      -0.66203468     -12.66360079       2.86409443       1.47283506      -0.56362179       0.07545159
H       -0.26295991      -1.87008484      -2.59836564        0       0.76218162       0.29057277       0.40038871     -12.70822060      -3.22991066      -2.93774527      -0.08098794       0.07741645
H       -0.40792403      -0.18899170      -2.65139232        0       0.04374989       0.10522756      -0.15667223     -13.07907398      -0.47361969       1.78546344      -0.70854817       0.07069609
12
Properties=species:S:1:pos:R:3:molID:I:1:momenta:R:3:energies:R:1:forces:R:3:charge:R:1 Nmols=1 Comp=DMC(1) energy=-588.9842996066193 free_energy=-588.9842996066193 dipole="0.06883977509585903 -0.40502576534620205 -0.057501410327153245" pbc="F F F"
C        0.08525320       0.16573146      -0.12131197        0       1.86794820       0.73301016       1.53803487     -59.46498560      -2.11028893       6.33748272       2.92226980       0.48335955
O       -0.12429432       1.34299971      -0.44256805        0      -0.95962919       0.10806927       0.47351736    -112.86846199       1.05570255      -2.10789360       0.37433161      -0.49296851
O        0.04637110      -0.24238864       1.18731155        0      -0.64023365      -0.58643838       1.17500959    -111.33752117       0.66948273      -0.99043939      -0.17234385      -0.32145866
O        0.04872213      -0.85212411      -0.81839548        0      -0.97198878      -0.07035230      -1.89612980    -110.60371285       0.92071991      -3.47332465      -1.58402033      -0.22673421
C       -0.15776283       0.46508596       2.44118641        0       0.20156761      -0.68058838      -0.84218036     -59.16118822      -0.37959237      -0.66436451      -1.67736735       0.02486174
C        0.15246796      -0.94433255      -2.24795492        0       1.79119118       0.09189161      -1.34472033     -59.04534336      -0.68858319      -1.53496876       1.30199851       0.00968362
H       -0.59959287       1.40527209       2.20678436        0      -0.51374191      -0.29365596       0.90217448     -12.95973648      -0.02760838       1.15140527      -0.10147728       0.07360819
H       -1.01144684      -0.12895256       2.87046575        0      -0.47337714       0.45546072      -0.49767041     -12.75471303       1.45902019       0.31464132       0.45872685       0.08506100
H        0.85437536       0.57890069       2.88936552        0       0.25028076      -0.39831470       0.00025690     -12.89018275      -1.13564425      -0.36196043       0.25510788       0.08088393
H        1.12460988      -0.56430266      -2.61607090        0      -0.41365903       0.24341895       0.41786320     -12.77036502      -0.01640626      -1.37019893       0.27917303       0.08866846
H       -0.30807235      -2.04418366      -2.21920697        0       0.16846422       0.88522914      -0.01340453     -12.30236708       1.68764911       1.98825657      -1.47325689       0.11256085
H       -0.50232405      -0.25044828      -2.69178512        0      -0.30682227      -0.48773013       0.08724903     -12.82572206      -1.43445109       0.71136439      -0.58314196       0.08247404
12
Properties=species:S:1:pos:R:3:molID:I:1:momenta:R:3:energies:R:1:forces:R:3:charge:R:1 Nmols=1 Comp=DMC(1) energy=-588.1671677802112 free_energy=-588.1671677802112 dipole="0.16550523360636837 0.014298245032083063 0.36180133447163954" pbc="F F F"
C        0.13533286       0.31295830       0.03131056        0      -0.47178817       0.27400533       1.25717124     -58.76797934      -2.21428088      -6.07565473      -1.49304950       0.47252577
O       -0.13365233       1.33844005      -0.41359394        0       0.18252407       0.66197166       0.04334179    -111.54874422       0.39974173       3.94230300      -0.56142103      -0.34850957
O        0.00490772      -0.26412675       1.21444543        0      -0.29553775       0.33459348      -0.23525548    -110.54989098       1.25239779       0.53479864      -2.32147076      -0.19805197
O       -0.00075889      -0.88801475      -0.89561749        0       0.08016419      -0.90489813      -0.04387591    -111.73707626       1.30731114       0.62226054       1.04456838      -0.37219875
C       -0.19230875       0.41479675       2.37735075        0      -1.57482389       0.23367653       0.01673550     -59.18936946      -1.24442871      -1.00107698       4.27121303       0.03484894
C        0.23879760      -0.89516797      -2.33068708        0       0.09003522       0.71792468      -0.63125589     -58.78905145       0.16474078      -2.14681142       0.87344299       0.05181982
H       -0.47367730       1.47136619       2.60603907        0       0.78217785      -0.24673891      -0.27827570     -13.00924449       0.18625604      -0.65183720      -1.50479893       0.06741721
H       -0.99021262      -0.25548413       2.86447967        0       0.12909886      -0.56029801       0.17698925     -12.65547472       0.21903459       1.12975761      -0.41267720       0.06980578
H        0.61646143       0.17966898       3.10238322        0      -0.22009792      -0.33805917       0.38994408     -12.88950963       0.42564830       0.38025336      -0.60976458       0.05849049
H        1.29352746      -0.51408239      -2.52097125        0      -0.15406172      -0.19195242      -0.22249409     -13.15018300      -1.54480731      -0.41854355      -0.17466372       0.05444026
H        0.13574155      -2.16479631      -2.72554425        0       0.82966308      -0.00747209      -0.37134721     -12.86759424       0.44647864       3.50514016       1.32904487       0.04036015
H       -0.61779970      -0.37875101      -2.76424253        0       0.62264617       0.02724704      -0.10167757     -13.01305000       0.60190790       0.17941056      -0.44042356       0.06905186
12
Properties=species:S:1:pos:R:3:molID:I:1:momenta:R:3:energies:R:1:forces:R:3:charge:R:1 Nmols=1 Comp=DMC(1) energy=-589.0396494109355 free_energy=-589.0396494109355 dipole="0.10212132718043887 -0.21090972682743991 0.3089351250551973" pbc="F F F"
C        0.05443199       0.25264235      -0.00962496        0      -1.86798736      -0.46947107      -2.66525464     -59.03836704      -1.71214003       0.93044209      -2.68461116       0.47195587
O       -0.09025796       1.41016292      -0.39576864        0       0.87295433       0.35755316       1.18426101    -112.47701436       0.83426798      -2.65939008       1.05442289      -0.42628315
O        0.02843612      -0.25983393       1.18658554        0       0.75543414      -0.68883119      -0.65503081    -110.83802249       0.55215557      -1.61985991       0.19678635      -0.24773280
O        0.00032698      -0.89848078      -0.89729178        0      -0.31453134       0.35475250       0.28938172    -111.42203007       0.40773531       1.54369039      -0.02203516      -0.30005810
C       -0.26280561       0.31541488       2.48978127        0       0.22993663      -1.13710673       1.07165426     -59.14894361       0.57821968       0.91804335      -1.82548952       0.01673673
C        0.24942609      -0.85481888      -2.32848350        0       1.07769772       1.77994603      -0.10826004     -58.84926179       3.85141322       0.14643953      -0.33333999       0.04694581
H       -0.15042426       1.41449945       2.23862130        0      -0.11874051      -0.49228107       0.06160347     -12.72477129      -0.91523023      -0.83783370       1.13838263       0.09039908
H       -1.22664505      -0.16648811       2.76559177        0      -0.95174150       0.49025491      -0.05050995     -12.70113236       0.53171263       1.03829187       0.03345343       0.09660150
H        0.54068247       0.00573890       3.17522994        0       0.15402324      -0.14303317       0.07060967     -12.82341504      -0.29303473       0.04300547      -0.28736467       0.08542781
H        1.26718294      -0.26703760      -2.56366589        0      -0.04430779       0.76349501       0.46797828     -13.09973432      -1.59444858      -0.66533733       0.90629084       0.02999579
H        0.62582352      -1.90891177      -2.71650332        0       0.05100422      -0.52991754       0.09744109     -12.88799173      -1.54166981       1.68293832       1.09258866       0.06640963
H       -0.41000451      -0.33112255      -3.02109379        0       0.15625823      -0.28536085       0.23612595     -13.02896530      -0.69898101      -0.52042999       0.73091570       0.06960183
12
Properties=species:S:1:pos:R:3:molID:I:1:momenta:R:3:energies:R:1:forces:R:3:charge:R:1 Nmols=1 Comp=DMC(1) energy=-588.3540895704322 free_energy=-588.3540895704322 dipole="-0.09912810580716443 -0.2638584157395403 -0.16504619023584702" pbc="F F F"
C       -0.11835932       0.21458976      -0.15900703        0      -1.90233985      -1.00717959      -0.41721892     -59.20536853       1.58854390      -0.34618110       3.94691907       0.48417650
O       -0.05461668       1.38172613      -0.32579762        0      -0.16974508      -0.94588207       1.02361951    -112.20087614      -0.56663445       0.89162730      -1.01993784      -0.40912203
O        0.07413637      -0.32801756       1.15719775        0       0.64252668      -1.09738173      -0.66969450    -111.46146282      -0.99524608       0.34097730      -0.10343876      -0.33087595
O       -0.03252185      -0.82403649      -0.91067287        0      -0.23624960       1.62708189      -0.44050349    -110.96314756      -0.22917817      -1.29315488      -0.02624353      -0.24919750
C       -0.25448559       0.22578454       2.46925090        0       0.48192016      -0.03082995      -1.75231017     -58.74661220       2.99861143       4.03318574      -2.91741974       0.02782068
C        0.41135899      -0.75767413      -2.27679101        0       0.55713441       2.07814005       1.86840440     -59.10862549      -4.02833311       0.87032725       0.12897761       0.00707399
H       -0.18651322       1.47302228       2.57737045        0       0.40103606      -0.08422185       0.24551554     -12.95592467       1.33061164      -2.18434746      -0.84667476       0.02594717
H       -1.21471609       0.33285927       2.67561453        0      -0.17220941      -0.12638736       0.04679169     -12.82964815      -4.48747159      -1.54440186       0.86019968       0.07862241
H        0.42708238      -0.19999262       3.13611187        0      -0.15719795      -0.13936942       0.11807444     -12.86100155       0.51988102      -0.64157029       0.86278083       0.09067841
H        1.01413713       0.14122600      -2.26994009        0       0.17205356       0.38420844      -0.05883148     -12.65454807       0.93426447      -0.71969206      -0.97544404       0.10557305
H        0.46681885      -1.81411405      -2.52664560        0       0.28409180      -0.48860945      -0.25498708     -12.48279901       1.57249644       0.40789238      -0.15098076       0.11597692
H       -0.58192195      -0.50697495      -2.83729246        0       0.09897922      -0.16956896       0.29114006     -12.88407537       1.36245449       0.18533768       0.24126222       0.05332636
12
Properties=species:S:1:pos:R:3:molID:I:1:momenta:R:3:energies:R:1:forces:R:3:charge:R:1 Nmols=1 Comp=DMC(1) energy=-588.423714977384 free_energy=-588.423714977384 dipole="-0.056624625883904704 -0.3288861908007076 0.13798743783569709" pbc="F F F"
C       -0.20365082       0.18436527      -0.05511047        0      -0.12153220       0.49590874       2.43067090     -59.23708011       3.33558040       0.84829500       0.34244053       0.47857819
O       -0.05928773       1.34428222      -0.31947295        0      -0.09068169      -0.42365505      -0.09472201    -112.27379110      -1.22323448       0.43138472       0.24291941      -0.43023374
O        0.13182886      -0.38436750       1.12751458        0       0.58780922      -0.18271083      -0.35977478    -111.21085986      -1.67382793      -0.18456471      -0.60435626      -0.28259971
O       -0.07680589      -0.79227023      -0.91550129        0      -1.11398589      -0.61192492       0.44409486    -110.63402857      -1.03476484      -1.72580190       1.53105427      -0.23486169
C       -0.22539047       0.27268572       2.31660219        0       0.42144625      -0.18298055      -1.49308919     -59.11809036       2.61924610      -0.02537386       0.71748896       0.00478376
C        0.37413790      -0.64116243      -2.17061099        0      -1.14216357       0.77236354       0.67360786     -59.20614686      -1.37685613       0.79959516      -3.26232423       0.03774593
H        0.48169274       1.17951189       2.41371061        0       0.53198260      -0.06246139      -0.38226018     -12.81399958      -2.16564045      -0.71919032       0.09859428       0.08019512
H       -1.20150093       0.03847124       2.63920842        0       0.48938723       0.10487755      -0.63154972     -12.65496651      -2.20872399       1.95190082      -0.86305384       0.08699960
H        0.08154430      -0.44325994       3.04185838        0      -0.26897123      -0.39372756      -0.33235695     -12.62722608       2.13511258      -0.83247576       1.16361322       0.07339251
H        1.14667154       0.05867618      -2.39702654        0       0.18320845       0.24827019      -0.07471098     -12.93742918      -0.18629743       2.22837270       0.42136704       0.06048516
H        1.01179373      -1.44072658      -2.38843798        0       0.54182618       0.16732785       0.19770569     -12.70100562      -0.01791310      -2.57929674      -0.52242759       0.07728537
H       -0.54943193      -0.53033425      -2.88451440        0      -0.01832535       0.06871242      -0.37761551     -13.00909114       1.79731927      -0.19284512       0.73468420       0.04822949
12
Properties=species:S:1:pos:R:3:molID:I:1:momenta:R:3:energies:R:1:forces:R:3:charge:R:1 Nmols=1 Comp=DMC(1) energy=-588.9816090384838 free_energy=-588.9816090384838 dipole="0.10150003961261056 -0.17116076905251856 0.25633397308346767" pbc="F F F"
C       -0.11273658       0.17901236       0.04111191        0       2.00389671      -0.41029276      -0.54764803     -59.26447287       0.39245218      -0.16092084      -4.99142326       0.49119787
O       -0.13178106       1.32442896      -0.29164333        0      -2.28789309       0.24810463       1.06411959    -112.53481572      -0.28768779       0.59104547       0.87208511      -0.44384713
O        0.12446941      -0.44770743       1.09174142        0      -0.87362093      -1.99811524      -0.81799019    -110.64380311       0.40192155      -0.81645995       2.68861183      -0.21209863
O       -0.14930894      -0.82649981      -0.89621495        0      -1.21386460      -0.17985725      -0.23015714    -111.44188212      -0.94911999      -0.13939070      -0.80110608      -0.33106999
C       -0.12276387       0.24511251       2.27166126        0       0.87970299      -0.30779692       0.50486486     -59.04554213      -2.20457113       2.91434550      -0.36511061       0.02368179
C        0.39752826      -0.52810232      -2.21664130        0       2.09318034       1.23185992      -0.42396249     -59.05330777      -2.12519548      -1.60499324       0.17796092       0.00890034
H        0.45692820       1.20800656       2.40431065        0      -0.09488169       0.34613136       0.38132258     -12.95456981      -0.17689979      -1.04426465      -0.32462820       0.06627830
H       -1.27721448       0.66727935       2.14958638        0       0.90366806       0.51294612      -0.13739335     -12.86881951       2.37893172      -1.27778978       1.09631995       0.05291721
H        0.14548341      -0.48683158       2.97503732        0      -0.46023378       0.34840544       0.30755148     -12.62502737      -0.41980352      -0.37600062       1.51086206       0.10241013
H        0.75365574       0.41499681      -2.00231504        0      -0.57338823       0.26115799       0.51388295     -12.75449139       1.55072578       1.85303403      -0.79485200       0.09624901
H        0.98038871      -1.40393273      -2.30754962        0      -0.22383550       0.07924434      -0.15543815     -12.73748234       1.57109646      -0.30250183      -0.50104664       0.08705445
H       -0.26831044      -0.56523214      -3.13276398        0      -0.15273026      -0.13178763      -0.45915211     -13.05739490      -0.13184999       0.36389660       1.43232692       0.05832665
12
Properties=species:S:1:pos:R:3:molID:I:1:momenta:R:3:energies:R:1:forces:R:3:charge:R:1 Nmols=1 Comp=DMC(1) energy=-589.3198087788645 free_energy=-589.3198087788645 dipole="0.298508952643799 -0.04287216723988637 -0.08086986022807693" pbc="F F F"
C       -0.01336645       0.13328965      -0.08805122        0      -0.10475761      -1.02497978      -1.54747034     -58.93078712      -2.48915191      -0.70610779       2.62282563       0.47317574
O       -0.24296068       1.32053297      -0.20039820        0      -1.00907075      -0.85873638       1.90504907    -112.32771707       1.24615849      -2.01531272       0.03110606      -0.40596256
O        0.07605496      -0.55588465       1.14830829        0      -0.29309024      -0.87342408       1.61904698    -111.42579016       0.18966728       2.32952709      -0.20570619      -0.28798936
O       -0.21338408      -0.85844684      -0.96439960        0      -0.24419298      -0.24573689      -2.23492269    -111.26705723       2.85703506       1.61395989      -1.39782293      -0.26912081
C       -0.05908523       0.32235532       2.30511555        0      -0.09494903       1.32600300       0.82822490     -58.97961154      -2.92986064       0.55432504      -0.72530434       0.03244823
C        0.49448636      -0.45507718      -2.23609143        0       1.20571572       0.89230223       0.50561642     -58.90733992      -0.89266195      -0.85965195       0.92331415       0.00715698
H        0.77158622       1.01099615       2.39406447        0       0.74260520      -0.38863789      -0.29131335     -13.03889689      -0.00734817       0.02184701      -0.09762173       0.06974743
H       -1.10245402       0.93034225       2.12776253        0      -0.03748325      -0.21719382       0.17839296     -12.95985659       2.37421576      -0.88975856       0.28540399       0.04930612
H       -0.26387782      -0.19963791       3.25884654        0      -0.42611020       0.30800371      -0.36233849     -12.96604807       0.54440906      -0.29881191      -0.87645942       0.07495971
H        0.79034638       0.56915738      -2.18916589        0       0.39517397       0.10723742      -0.61579538     -12.92154774       0.40632337       0.70090082       0.37233131       0.07898393
H        1.37208539      -1.07867951      -2.51069168        0       0.36650338       0.78261888      -0.03207897     -12.91643135      -0.94892037       0.04146390       0.46530288       0.08188918
H       -0.33842969      -0.46596007      -2.88906540        0      -0.50034421       0.19254360       0.04758888     -12.67872509      -0.34986598      -0.49238084      -1.39736941       0.09540542
12
Properties=species:S:1:pos:R:3:molID:I:1:momenta:R:3:energies:R:1:forces:R:3:charge:R:1 Nmols=1 Comp=DMC(1) energy=-589.5034284226931 free_energy=-589.5034284226931 dipole="0.25467146049274425 -0.04120965477362171 -0.021172865988460698" pbc="F F F"
C       -0.09823079       0.04337737      -0.05320915        0      -1.83469122      -1.37796802       2.28989103     -59.14984917      -0.55147673      -0.91520781       1.78464324       0.48153275
O       -0.31342209       1.21123596      -0.12267181        0      -1.50262863      -2.02643374       0.60975879    -112.23568506       0.28472046       0.75466845      -0.56091969      -0.42019096
O        0.06861112      -0.55763326       1.18496709        0      -0.02756229       0.91585303       0.02878419    -111.55444636      -1.23418613       1.07239694      -1.41860019      -0.30181085
O       -0.12838025      -0.82477350      -1.06588233        0       2.12075387       0.85646077      -1.18421153    -111.20947349       0.96549404      -0.18466411       1.00059448      -0.26177703
C       -0.05470460       0.41861034       2.27820621        0       0.38312154       0.22825353      -1.19489298     -58.90082089      -2.70080359      -2.01768740       0.38829842       0.02126919
C        0.52131745      -0.37117556      -2.23350183        0       0.71163619       1.29081851      -0.33720132     -59.16680407       1.50706107      -0.14116811       0.11164386       0.03126913
H        0.91678428       0.76341343       2.26662952        0       0.15249864       0.28117512       0.14415048     -12.75858856       1.60735174       1.71452106       0.66751053       0.08954573
H       -0.94786169       1.23562009       2.16189469        0       0.08256814       0.54542818       0.00595772     -12.85062712       2.17700868      -2.05054439       0.08329937       0.07800639
H       -0.20557755      -0.30906926       3.17100752        0       0.39731221      -0.05376372      -0.27507449     -12.83163267      -0.02562582       1.49878032      -1.19640915       0.07631177
H        0.75452145       0.68444937      -2.19223842        0      -0.47993756       0.05617088       0.49303551     -13.01414830      -0.03681036       0.40328236       0.20335605       0.06628600
H        1.50900090      -0.90494746      -2.43146423        0      -0.22265697      -0.35808991       0.11070478     -13.01753510      -1.22120612       0.24599485       0.41642549       0.05735643
H       -0.16735760      -0.52645720      -3.00412997        0       0.21958609      -0.35790464      -0.69090218     -12.81381764      -0.77152725      -0.38037218      -1.47984242       0.08220145
12
Properties=species:S:1:pos:R:3:molID:I:1:momenta:R:3:energies:R:1:forces:R:3:charge:R:1 Nmols=1 Comp=DMC(1) energy=-589.032608340718 free_energy=-589.032608340718 dipole="0.21721378865807123 -0.06086494621836696 0.11394592282233508" pbc="F F F"
C       -0.24935277      -0.04546996       0.08345083        0      -1.64836326      -0.71057640      -0.26553357     -59.12019345       1.70529404       1.22239209      -4.91652220       0.48372735
O       -0.44919852       1.11972082      -0.11668208        0      -2.75460023      -0.77553204      -0.33051232    -112.31263433      -0.81456072       0.96500889      -0.01626003      -0.44986691
O        0.06439739      -0.53730616       1.22643711        0       0.22193530      -0.42399800       1.78625210    -110.79126949      -0.27938931      -1.28001152      -0.46607338      -0.20359246
O        0.00995738      -0.80987631      -1.06811735        0       1.82929307      -0.68466733       0.49822772    -111.43157094      -1.05425566      -1.46034068       1.56962541      -0.32575396
C        0.02869606       0.45867567       2.16545293        0       2.16150715       0.59120261      -0.70564140     -59.00556731      -1.37323167       1.20623880       3.79799813       0.03518415
C        0.56346415      -0.29713686      -2.30834622        0      -0.10083594       0.72592237      -0.52484122     -59.07117392       1.32616368       0.47219997       2.90000787       0.02663494
H        0.94526743       0.99517049       2.33000866        0       0.14403792      -0.12804982      -0.12162250     -12.95205193       1.04251164      -0.23007278      -0.27349515       0.06453233
H       -0.67440297       1.38401512       2.01961781        0      -0.43029707       0.33536219      -0.29996099     -12.79614158       0.39857971      -2.15125101      -0.01018237       0.07610206
H       -0.19021220      -0.12829767       3.12962470        0      -0.22771403       0.42682582       0.14854284     -12.87422802       0.01209125       1.17024469      -0.97155835       0.06388820
H        0.57217758       0.80054786      -2.20837798        0       0.18067060      -0.02316447      -0.42861639     -12.94580485       0.52852481      -0.40405143      -0.22730822       0.07910172
H        1.50719894      -0.87256171      -2.27702235        0       0.66693884       0.47692528       0.15363884     -12.78433607       0.37702386       1.07878055      -0.23763056       0.07320973
H        0.15172822      -0.59370322      -3.21096452        0      -0.04257234       0.18974980       0.09006690     -12.94763643      -1.86875165      -0.58913756      -1.14860116       0.07683287
12
Properties=species:S:1:pos:R:3:molID:I:1:momenta:R:3:energies:R:1:forces:R:3:charge:R:1 Nmols=1 Comp=DMC(1) energy=-588.7976987489554 free_energy=-588.7976987489554 dipole="0.2819955666613448 0.0736690892630062 -0.3410083272753834" pbc="F F F"
C       -0.30240328      -0.08314010      -0.06609336        0       0.03481143       0.08026374      -2.37461538     -58.85593284       1.59810656       1.80111083       2.61781808       0.46928124
O       -0.63347622       1.08593544      -0.12864694        0      -3.03007782      -1.08470966      -0.39293639    -112.26054580      -0.12171317      -1.72162537      -0.91482737      -0.41397165
O        0.05036931      -0.58036864       1.28822694        0      -0.73876046      -0.59493877      -0.09510090    -111.69383279      -0.58755687       0.32701875      -2.12643464      -0.33096619
O        0.08280950      -0.86932676      -1.03971463        0       1.20583376      -1.03698747       0.27931646    -111.12077604       0.66867681       1.12899537      -0.44707053      -0.24272258
C        0.16871695       0.53184494       2.20940068        0       1.36888768       0.33772657       1.32253178     -59.07754079      -3.13507670      -1.08491518       0.43965419       0.01500638
C        0.62439292      -0.21321101      -2.28952447        0       0.96511233       1.74906908       0.71086958     -58.79528906      -0.71777438       1.53581490       1.89834045       0.00949750
H        1.20399376       0.77304624       2.24788652        0       0.00644249      -0.22925997      -0.03111352     -13.04894379       0.31271772       0.75097145       0.09971200       0.07132357
H       -0.63489860       1.17421573       1.77336592        0      -0.07144183       0.58087837      -0.32434949     -12.63804156       1.39102808       0.84897822       0.49360062       0.09644764
H       -0.30496099       0.34619146       3.24911327        0       0.02994803       0.15345246       0.50745037     -13.10794121       1.13584316      -0.58085080      -1.40125278       0.04984771
H        0.66587469       0.91397098      -2.41800769        0      -0.41893375       0.14723071       0.24838015     -12.81331085      -1.16861052      -0.83655618       1.02480378       0.07916506
H        1.66366552      -0.36046760      -2.35065607        0       0.38206089      -0.01993118      -0.30830593     -12.72767638       1.14481091      -1.40574486      -0.06181795       0.09364276
H       -0.01058743      -0.61210379      -3.00596803        0       0.26611726      -0.08279386       0.45787327     -12.65786762      -0.52045160      -0.76319713      -1.62252586       0.10344857
12
Properties=species:S:1:pos:R:3:molID:I:1:momenta:R:3:energies:R:1:forces:R:3:charge:R:1 Nmols=1 Comp=DMC(1) energy=-588.6514234829359 free_energy=-588.6514234829359 dipole="0.4219976244158948 0.19058605528890346 -0.3156107182499615" pbc="F F F"
C       -0.26942543      -0.05325939      -0.12834459        0       0.85829755       0.14852547       1.23244750     -58.87789745       0.51314197      -1.59296777       4.34375386       0.48168652
O       -0.82211587       0.99164429      -0.17539379        0      -3.15298392      -1.44133617      -1.62540836    -112.07348173      -0.05651251       0.65055209      -1.27903297      -0.38985112
O       -0.00623525      -0.56885950       1.24761045        0      -1.35473158       1.05116001      -1.12802725    -111.72071894      -0.18079885       2.06011994      -1.16658652      -0.34650490
O        0.19270805      -0.89110488      -1.02255093        0       2.61963182       0.15821060       0.68323537    -111.36350753       0.81001790       1.23154230      -0.74511238      -0.26431542
C        0.18242958       0.53584338       2.25921349        0       0.76771530      -0.14239546      -0.31853201     -58.92312081      -0.17331853      -2.47155220      -0.06813270       0.02094592
C        0.71895958      -0.11426877      -2.22373260        0      -0.37886636      -0.19039208       0.76813941     -58.79618670      -5.15338024      -1.36813709       0.14389516      -0.00753971
H        1.22077677       0.70882597       2.28721111        0       0.03363153      -0.23161444      -0.12336051     -12.97079841       1.83364766      -0.60016898       0.50134175       0.05992036
H       -0.08210809       1.48557783       1.91982783        0       0.30944874       0.38250663       0.10020656     -12.92597513      -1.83110569       1.17668406      -0.64286138       0.07787455
H       -0.18749925       0.27533800       3.29902231        0      -0.22799119      -0.28790243       0.29888881     -13.02185300       0.08426127       0.03017306      -1.64475358       0.07067088
H        0.22898130       0.86054023      -1.98775106        0      -0.20555244       0.07781249       0.16262414     -12.54909476       1.50484396      -0.23209494      -0.96924270       0.11509896
H        1.66278650      -0.44319688      -2.42514123        0       0.28540672      -0.00394553       0.10930232     -12.61525811       2.76065007       0.34796209       0.46379323       0.11058919
H        0.20690449      -0.59128792      -3.13716079        0       0.44599383       0.47937089      -0.15951600     -12.81353090      -0.11144701       0.76788743       1.06293824       0.07142477
12
Properties=species:S:1:pos:R:3:molID:I:1:momenta:R:3:energies:R:1:forces:R:3:charge:R:1 Nmols=1 Comp=DMC(1) energy=-588.9413788407218 free_energy=-588.9413788407218 dipole="0.539808256250042 0.06763594015875259 0.325549775501965" pbc="F F F"
C       -0.21872619      -0.07803513       0.04397284        0      -1.17987554       0.70591947       1.04246615     -59.15979572      -3.64845920       4.04708307      -7.73511535       0.48168413
O       -0.96078443       0.88665920      -0.27849134        0      -0.51521800      -2.69114822      -1.72787794    -112.73208878       2.31534410      -1.91570827       0.78340768      -0.48918063
O       -0.06511633      -0.46831023       1.17899301        0      -0.33326587       1.10084751      -0.06544588    -110.59012930       1.82343760      -2.95309793       3.83105924      -0.23269553
O        0.34201361      -0.84023375      -0.98038886        0       2.18199167       1.62389350       0.94345457    -111.39999177      -0.22236059       0.61641192       1.05070521      -0.29057816
C        0.23564971       0.50357703       2.19773301        0       0.72422422      -0.52393743      -2.05650157     -59.07717676      -1.58427747      -2.39657993       0.08615898       0.00362046
C        0.68302227      -0.11104963      -2.14169760        0      -0.14492007       0.27474383       0.85544170     -59.09937394      -2.09962529       1.35952354      -0.89815607       0.03825953
H        1.29119886       0.43072377       2.26330967        0      -0.06702025       0.03113214       0.19755041     -12.71479710       0.78103301       0.64160928       0.63572982       0.09702378
H       -0.26857274       1.38428513       1.94709433        0      -0.38126876      -0.38814510      -0.05283763     -12.71338141      -0.09508684       1.70801006      -0.31663079       0.10231450
H       -0.35654834      -0.02079474       2.93632508        0      -0.36082514      -0.50484417       0.05529261     -12.44634633       0.53620924       0.51348850       1.43436655       0.10733643
H        0.48427644       0.98655520      -2.07401275        0       0.29039258       0.20936611       0.17183459     -13.01916234      -0.51353539      -0.62329257       0.39918156       0.05855030
H        1.70326515      -0.12717587      -2.24523080        0      -0.05808853       0.38796565       0.16427660     -12.94054382       2.63347868      -0.65154347      -0.35524875       0.06480262
H        0.20169946      -0.41125174      -3.10834055        0      -0.15612632      -0.22579329       0.47234639     -13.04859157       0.07384215      -0.34590420       1.08454191       0.05886257
12
Properties=species:S:1:pos:R:3:molID:I:1:momenta:R:3:energies:R:1:forces:R:3:charge:R:1 Nmols=1 Comp=DMC(1) energy=-589.1259726876627 free_energy=-589.1259726876627 dipole="0.39863667369219297 0.09637276594520464 0.00956671984562299" pbc="F F F"
C       -0.30299733      -0.05092956      -0.04127480        0       0.69504913      -1.15953663      -0.99132597     -59.13943702       0.96129677      -1.26560838       0.84659007       0.50058603
O       -1.01406121       0.80920936      -0.39277602        0      -2.50087015       1.31927729      -2.96307592    -112.17465613      -1.70751195       2.15299059       0.42088812      -0.41588948
O       -0.01760633      -0.49220503       1.19390109        0       1.58433671      -2.12313339      -0.41029787    -110.89022679       0.11421591      -2.31558186      -1.55537967      -0.25482361
O        0.41361500      -0.75583261      -0.86353256        0       0.67163855       0.80628869       2.53601228    -111.06263735       1.58130557      -0.98513516      -0.52481981      -0.27295077
C        0.19945445       0.42100894       2.12049911        0      -1.26746787      -0.09254813       0.77572639     -59.13114174       1.04340036       3.27720640       3.29676757       0.05450510
C        0.71408590      -0.04633644      -2.06329413        0       0.99056059       0.46572680       1.11034516     -59.16371091      -1.27604562      -0.52508856      -0.12652092       0.01033418
H        1.20390040       0.76679832       2.50249882        0      -0.24400109       0.51450166      -0.16554482     -13.07030379       0.51611121      -0.66405586      -1.82858752       0.03112066
H       -0.29482772       1.34471672       1.91296249        0       0.39989834       0.02481830       0.11128234     -13.11467252      -0.71288180       0.90664242      -0.30654087       0.04305762
H       -0.10496582       0.12138615       3.07993072        0       0.29758975       0.45778522       0.29874106     -12.91475779      -1.58379952      -1.06873911       1.34225614       0.05505054
H        0.30213521       0.97926775      -1.83946497        0      -0.55174044       0.13726136      -0.04206398     -12.74865343       0.94286340      -0.70228546      -1.18460578       0.09187632
H        1.75844556      -0.21668964      -2.28879190        0      -0.17093716      -0.39724936      -0.19797207     -12.87442220       0.21007960       0.54567908       0.18435370       0.08232272
H        0.13662004      -0.60713043      -2.80198899        0       0.09594363       0.04680819      -0.06182660     -12.84135303      -0.08903394       0.64397591      -0.56440103       0.07481068
12
Properties=species:S:1:pos:R:3:molID:I:1:momenta:R:3:energies:R:1:forces:R:3:charge:R:1 Nmols=1 Comp=DMC(1) energy=-588.5518737228879 free_energy=-588.5518737228879 dipole="0.34563485138626926 0.20638043358143263 0.0313669704109827" pbc="F F F"
C       -0.36675529      -0.06943852      -0.05702230        0      -1.96649367       0.87246635       0.82882864     -58.77545503       0.22855446       0.57587113       0.37552563       0.46699544
O       -1.09879797       0.83035285      -0.50194552        0       0.22598824      -1.63363345      -0.42257918    -112.56474702       1.80506324      -2.76404256       2.91797351      -0.42437950
O        0.04793813      -0.62171649       1.19794312        0      -0.23370238      -0.67713110       1.10607330    -111.69081573      -3.09405909       3.37718184       0.20925344      -0.34100944
O        0.49937704      -0.71942013      -0.80518721        0       1.71880106       0.58062025      -0.72020220    -110.66960128       0.23630029       1.09041887      -2.01854877      -0.21887685
C        0.15806612       0.52815375       2.25007840        0       0.64879061       1.55548838       0.88489139     -58.78630687       2.16092223      -1.34436102      -4.71848131      -0.00163682
C        0.73250704      -0.04381112      -2.03823145        0      -0.62601988      -0.88151254      -1.12203773     -59.07845660      -0.33238199      -1.53615886      -2.40067608       0.01855343
H        1.26126023       0.61516213       1.97020125        0      -0.07642034      -0.35481003      -0.18973384     -12.55600015      -0.98537284       0.52027435       1.97448693       0.09758889
H       -0.32746496       1.37211179       1.77948984        0      -0.24003161      -0.40353402      -0.04329991     -12.95295828      -0.41621301       0.20687764       0.36159979       0.08121163
H       -0.22765327       0.22210804       3.16416677        0      -0.10036639      -0.01730787      -0.27456926     -12.84235873      -0.09029293      -0.48513962       1.23955606       0.10188548
H        0.37988780       0.96695649      -2.16208550        0       0.51993113       0.63642354      -0.11757400     -12.83579103       0.55502541       0.74889085       1.15924152       0.08389087
H        1.77261285      -0.22988750      -2.35844485        0       0.14348494       0.41450364      -0.07606914     -12.89083313      -0.43476168       0.30830270       0.45795140       0.07809736
H        0.08346800      -0.45080590      -2.85667465        0      -0.01396170      -0.09157314       0.14627192     -12.90854987       0.36721592      -0.69811532       0.44211788       0.05767951
12
Properties=species:S:1:pos:R:3:molID:I:1:momenta:R:3:energies:R:1:forces:R:3:charge:R:1 Nmols=1 Comp=DMC(1) energy=-588.6054492775668 free_energy=-588.6054492775668 dipole="0.3385767177584722 0.2216211496664996 0.14688545742532408" pbc="F F F"
C       -0.39090731      -0.10557299       0.00143309        0       1.96279660      -1.74782225       0.04519845     -58.89716205       3.10239535      -0.31153207      -1.62935294       0.48111603
O       -1.10129118       0.72732329      -0.47465578        0      -0.49185158      -1.26645459       1.44053353    -112.07140190      -0.85311023      -0.06847326       1.73743975      -0.39173997
O       -0.05697435      -0.56783902       1.24825942        0      -2.55609165       2.38335880       0.71305103    -111.51631534      -0.19662979       1.69785761       0.01322951      -0.29360706
O        0.57739512      -0.63531532      -0.85810881        0       1.09639263       1.71628510      -0.52964643    -111.29431812      -0.19682508      -0.74154616       1.66147211      -0.31194116
C        0.20520921       0.54797857       2.21191852        0      -0.07490741      -0.49210746      -1.07757512     -58.88915693       0.28454211      -1.43753034       0.63095599       0.02154500
C        0.72481119      -0.05831720      -2.16580692        0       0.03075854      -0.21519046      -1.38943786     -59.02063611      -0.90746880      -5.13389265      -0.00412365       0.01473758
H        1.31978948       0.77200889       2.44608045        0      -0.17849690       0.42380673       0.68992508     -12.91585940      -1.60511135      -0.27565564      -1.37837537       0.07017957
H       -0.42773417       1.31659308       1.80994453        0       0.28102619       0.06566164       0.42989375     -12.86511016       0.33347803       0.92908738       0.31229563       0.08578101
H       -0.14280103       0.24447158       3.22725635        0       0.27782574      -0.14001349      -0.27550144     -12.88791363      -0.26550114      -0.10590143      -0.84961516       0.07479629
H        0.68727186       0.91257407      -1.96320892        0      -0.51301067      -0.11427781       0.28403448     -12.66555215      -1.75456215       4.30923930      -0.34011356       0.09228872
H        1.78337830      -0.13086966      -2.37012177        0       0.12988062      -0.51076748      -0.34433628     -12.82277076       0.31196689      -1.18905199      -0.64053508       0.07815278
H       -0.03214832      -0.75231484      -2.78666859        0       0.03567788      -0.10247873       0.01386081     -12.75925273       1.74682617       2.32739925       0.48672277       0.07869121
12
Properties=species:S:1:pos:R:3:molID:I:1:momenta:R:3:energies:R:1:forces:R:3:charge:R:1 Nmols=1 Comp=DMC(1) energy=-587.9797378830708 free_energy=-587.9797378830708 dipole="0.46916094357559684 -0.0920519729276395 -0.3136155825290878" pbc="F F F"
C       -0.22152300      -0.15408920      -0.04989130        0       0.97089089       1.49505785      -1.16269583     -59.21404582      -2.33638164       3.34694362       1.00027542       0.48155049
O       -1.12384556       0.60256626      -0.34059374        0      -0.32812278      -3.10949106       2.27847162    -112.22773803      -0.08564979      -0.18079012      -1.17989115      -0.44775351
O       -0.15767165      -0.39391637       1.29468392        0      -1.11876529       2.26242143      -0.42606816    -110.95995743       1.07921048      -4.58823721      -3.89260698      -0.28820001
O        0.68947406      -0.54775794      -0.85139572        0       2.24023961       0.54980345      -0.20336119    -110.96609488       1.26132307      -1.51343698      -1.29741955      -0.22635014
C        0.16140385       0.50936303       2.18393715        0      -1.16979006       0.67139770       1.20877146     -59.09561581       0.13866315       3.26696600       3.12671346       0.06541412
C        0.69516730      -0.12176628      -2.23897877        0      -0.90158337      -0.17396819      -0.25015085     -58.79858438      -3.33937124      -0.76865018      -1.32113632       0.00464756
H        1.30420363       0.86453974       2.26926379        0       0.62230047      -0.49180441      -0.54827926     -13.27584943      -1.90026550      -1.31411032       0.05613222       0.01668177
H       -0.38357660       1.50945670       2.02018957        0      -0.06123382      -0.24984777       0.23810244     -13.19708970       0.32068274      -1.04864711       0.28472634       0.02774520
H       -0.34987505      -0.10432805       3.00340943        0      -0.14861603      -0.01736176      -0.12020683     -12.42067664       1.48810352       1.89157790       0.54566435       0.09280289
H        0.14859015       0.85435355      -2.31967724        0       0.22028769      -0.80705577      -0.68652706     -12.50242613       2.02552046       0.08671613       0.31230788       0.11049890
H        1.54805619      -0.60044286      -2.69231306        0      -0.12377104      -0.14853340      -0.17935448     -12.54057897       0.85434105       1.33410211       0.33209621       0.11217534
H       -0.08947451      -0.58294057      -3.02417852        0      -0.20183626       0.01938192      -0.14870186     -12.78108067       0.49382370      -0.51243384       2.03313813       0.05078739
12
Properties=species:S:1:pos:R:3:molID:I:1:momenta:R:3:energies:R:1:forces:R:3:charge:R:1 Nmols=1 Comp=DMC(1) energy=-587.8818669993622 free_energy=-587.8818669993622 dipole="0.6219702065857492 0.19545282652845133 -0.16670712202329008" pbc="F F F"
C       -0.14764222      -0.01100487      -0.08031742        0       0.98213882       1.15186824       0.55141546     -59.21422041      -1.83637093      -1.04268928       1.73667891       0.48844596
O       -1.21796925       0.45816274      -0.31336096        0      -2.65064907      -1.69362592      -1.61386317    -111.75440547      -0.68703406       1.85836387      -3.66878564      -0.41605538
O       -0.19357651      -0.37329064       1.21911450        0       0.31955044      -0.93221830      -1.51323764    -111.08944711       2.29040783      -0.77365234       2.72639938      -0.32446632
O        0.80802877      -0.50575654      -0.85512796        0       1.14251151       1.33328223       0.15746728    -111.56293977      -0.94200936       2.31928688       0.19545120      -0.27934619
C        0.14703381       0.59534744       2.27705833        0       0.01098710       0.99728140       1.26018257     -58.87679757      -0.73046042      -0.98658175       0.98341952       0.02719195
C        0.59550247      -0.21745385      -2.30206134        0      -1.34310355      -1.24025101      -1.08129159     -58.74178384       2.91961150       1.52533571       0.83874735       0.01157374
H        1.21975385       0.45051476       2.28114872        0       0.64156275       0.20931064       0.43155433     -12.78658773       0.46894777       1.65911615      -0.15151999       0.07820752
H       -0.45752800       1.58701348       2.24421266        0       0.18496816       0.21556998       0.11596867     -12.94623728       1.53457880      -1.49802621      -0.51737778       0.07264649
H       -0.06402216       0.17137555       3.32821171        0       0.26134865       0.45394060       0.41440452     -12.88311878      -0.56959486       0.03881340      -1.63096030       0.06704390
H        0.47202243       0.94890806      -2.70858758        0       0.48005972      -0.45910943       0.27510510     -12.75298321      -0.60966376      -2.95873394       1.59374993       0.07818645
H        1.66078356      -0.41914127      -2.57836674        0      -0.03804282       0.52026279       0.17861097     -12.68962343      -0.83568509      -0.21748885      -0.59279041       0.08592582
H       -0.04307156      -1.04237897      -2.46872110        0       0.00866830      -0.55631121       0.82368349     -12.58372241      -1.00272742       0.07625635      -1.51301216       0.11064605
12
Properties=species:S:1:pos:R:3:molID:I:1:momenta:R:3:energies:R:1:forces:R:3:charge:R:1 Nmols=1 Comp=DMC(1) energy=-588.2452042751272 free_energy=-588.2452042751272 dipole="0.47868877886341865 0.2766254140013868 0.08836840888618727" pbc="F F F"
C       -0.24559932       0.02116873      -0.04842096        0      -2.83881723       0.03308711      -0.40715172     -59.08345930      -0.86374408      -1.17381022      -0.67449773       0.47616953
O       -1.32628516       0.41929104      -0.44525287        0      -0.21624584      -0.25769784      -2.24989076    -112.06480256       2.28903732      -0.05176089      -0.09098901      -0.39522933
O       -0.09913548      -0.41548482       1.20828174        0       2.76393225      -0.34580252       1.57329365    -111.36375614       1.59325644       1.62746607       2.45805101      -0.30986654
O        0.85642814      -0.36925536      -0.83188894        0       0.32962289       2.78169770       0.71811470    -111.52443975      -2.05769308       0.01169642       0.22956008      -0.29150829
C        0.20688685       0.60534590       2.39292704        0       0.83324844       0.15287657       0.51867649     -58.28534348      -5.23565716       0.14734424      -3.72657482       0.01136833
C        0.61830922      -0.36202402      -2.27527787        0       2.03975942      -1.79069058       1.36221454     -58.96387860      -0.74339498       3.64589104       1.41063508       0.02857275
H        1.11971599       0.94338998       2.38359028        0      -0.11105064       0.34950228      -0.11642056     -12.65662359       5.73001793       0.15374158       0.15603699       0.09322035
H       -0.16892292       1.61820203       1.91998555        0      -0.28049050      -0.03613765      -0.24404930     -12.74682360      -0.98888956      -1.58281667       1.31305767       0.06876147
H       -0.14322434       0.30715202       3.37984648        0      -0.53308526      -0.34329574       0.14633264     -12.75965277      -0.41920717      -0.16586092      -0.82886589       0.10508129
H        0.16934379       0.78536053      -2.35259171        0      -0.99670137      -0.21301440       0.01610465     -12.81353783       0.99707335      -2.58522027      -0.82029413       0.05878293
H        1.56487581      -0.49822423      -2.78815511        0      -0.57234138      -0.50518204      -0.54774158     -12.93920287      -0.03403737       0.22466062       0.24503851       0.08182692
H       -0.12003651      -1.05656666      -2.63562217        0      -0.41783079       0.17465710      -0.76948273     -13.04368379      -0.26676164      -0.25133100       0.32884224       0.07282059
12
Properties=species:S:1:pos:R:3:molID:I:1:momenta:R:3:energies:R:1:forces:R:3:charge:R:1 Nmols=1 Comp=DMC(1) energy=-588.3472640338217 free_energy=-588.3472640338217 dipole="0.24313982873066867 0.030666521101143627 0.007957367768033538" pbc="F F F"
C       -0.33302888      -0.04489077      -0.04458181        0       0.89605196      -1.03220191       0.17405151     -58.60365840       1.37234997       1.09579288      -0.75563927       0.46277968
O       -1.32684653       0.42032177      -0.58186639        0      -0.72049597       0.06938429      -1.73157208    -111.98922377       1.44196352      -1.38550222       2.62306068      -0.37453316
O        0.08179521      -0.38548736       1.31980788        0       2.41704283       1.11894397       1.13005045    -111.65590490      -1.35668375       0.85399424      -3.79846307      -0.32947839
O        0.79924051      -0.21400723      -0.81145687        0      -1.69564078       1.76216750       0.26761471    -110.87063893       0.02469724      -1.38831090       0.55112074      -0.24428328
C        0.17095826       0.61008549       2.35465332        0      -0.80275558      -0.65468651      -1.53267700     -59.13428615      -2.72788931       0.18614039      -2.11347466       0.01946273
C        0.65228029      -0.43255127      -2.22253322        0      -1.10825797      -1.16557409      -0.18516035     -59.00898803      -2.89940842      -0.77263389       0.23996879       0.01918185
H        1.21676174       0.78326766       2.46246397        0      -0.54682398      -0.14253921       0.23927316     -12.83639524       0.24554763       1.17054909       0.10705495       0.08848781
H       -0.71831496       1.36170713       2.21275323        0      -0.23328056       0.25316871       0.46098250     -12.96842944       2.33326876      -0.30117405      -0.13759968       0.06038363
H       -0.23379593       0.04526251       3.11687420        0       0.47061548      -0.39624268       0.19465446     -12.70714931      -0.26509722      -1.13690843       2.50039526       0.08427348
H        0.06960507       0.35272206      -2.60179292        0       0.34721802       0.91140193      -0.59187367     -12.76418264      -0.00994657       2.26711325      -0.77720200       0.07603672
H        1.39211177      -0.74825801      -2.91113725        0       0.38484728       0.16389860       0.56638396     -12.86930240       1.66010626       0.28656427       0.61136546       0.08677973
H       -0.14623338      -1.16640306      -2.46013043        0       0.59147928      -0.88772059       1.00827236     -12.93910481       0.18109188      -0.87562462       0.94941281       0.05090919
12
Properties=species:S:1:pos:R:3:molID:I:1:momenta:R:3:energies:R:1:forces:R:3:charge:R:1 Nmols=1 Comp=DMC(1) energy=-587.5327489013166 free_energy=-587.5327489013166 dipole="0.32632504042167393 0.032799037727185384 -0.08922577430593899" pbc="F F F"
C       -0.33569272       0.00522291      -0.05553126        0      -0.71556691       2.02889177       0.26797134     -58.95498090       3.10305918      -0.43057679       1.55513236       0.48146691
O       -1.31624271       0.37722430      -0.56407355        0       0.74740886      -1.07383276       1.55809416    -111.80601985      -3.13150778       0.59865183       1.07526396      -0.37700520
O        0.18557861      -0.32568918       1.26854193        0       0.70120258       0.40139965      -3.09594623    -111.34272901      -2.30924942       0.15654380      -3.60039091      -0.29744819
O        0.72799348      -0.16097233      -0.78861499        0      -0.32201818      -0.01906238       0.33839221    -111.02941001       0.81263837      -0.47096765      -0.78850477      -0.28870092
C        0.06003900       0.50656788       2.32744218        0      -0.36831317      -0.63764082       1.70234902     -59.12270644       3.12731097       3.23118896       0.85585474       0.04864532
C        0.57327428      -0.48045695      -2.25632925        0       0.97645353      -0.83800794       0.05609172     -58.73405038       5.23165987      -2.23615431       5.28153552      -0.02006520
H        1.08087830       1.02522780       2.48459631        0      -0.44321856       0.19202769      -0.36528971     -13.00667427       0.16470871      -0.91577472      -0.28488786       0.01650897
H       -0.39617317       1.48008100       2.40996093        0      -0.03734147       0.13834124       0.04874673     -13.10575762      -2.04363708      -0.33467460      -0.92997861       0.04973993
H       -0.00714794      -0.04046278       3.19632310        0      -0.14152156       0.30586058      -0.27619736     -12.94632270      -0.91370487      -1.35682774       1.86327465       0.06612638
H        0.45734191       0.28718425      -2.84549941        0      -0.12420316      -0.99042695      -0.18405233     -12.52922132      -2.49385722       3.37733070      -2.80430140       0.11772433
H        1.70705654      -0.48174979      -2.28255641        0      -0.37664552       0.21234841       0.55185348     -12.36672504      -0.15162346      -0.67893424      -1.01279547       0.09157924
H        0.35804060      -1.49854037      -2.14783082        0       0.10376356       0.28010152      -0.60201302     -12.58815136      -1.39579726      -0.93980523      -1.21020220       0.11142842
12
Properties=species:S:1:pos:R:3:molID:I:1:momenta:R:3:energies:R:1:forces:R:3:charge:R:1 Nmols=1 Comp=DMC(1) energy=-588.0504399125923 free_energy=-588.0504399125923 dipole="0.39568157654704117 0.02075360863153981 0.35013430402089973" pbc="F F F"
C       -0.26520365       0.07864846       0.02220482        0       0.60249799       0.46905572      -0.24330466     -59.47609792      -4.23091707       0.58843822      -6.62223933       0.49431170
O       -1.37188220       0.35053574      -0.45555546        0      -1.33222584       0.43418921       2.43813236    -112.83421651       1.60213125       0.11267471       2.01465409      -0.48951065
O        0.18622922      -0.26789033       1.09925534        0       0.40052626       0.90249724      -0.40952328    -110.81660193       1.29288939      -0.53334448       7.26894113      -0.26133003
O        0.74161269      -0.18045919      -0.80687339        0       0.59989545      -0.77296507      -1.54757794    -110.94640819       1.13951704      -0.82495681      -2.82226512      -0.27680893
C        0.03608457       0.56041760       2.39628547        0      -0.84972035       0.81734632       0.03403686     -58.80965171      -0.02402243      -1.27901337      -2.26702686      -0.00422667
C        0.69279325      -0.55133308      -2.20855613        0       0.92562905      -1.14945278      -0.61686633     -58.63908324      -1.45376564      -0.23321866      -2.51522511       0.03347647
H        1.02561772       1.05729506       2.29207970        0      -0.16062612      -0.16546638       0.20292826     -12.54754915      -1.21913286       0.36799795       0.87366052       0.11148871
H       -0.94029888       1.01706079       2.23145526        0      -0.49669197      -1.04464442      -0.04033278     -12.71235017       0.53680937       0.92347819       0.19773825       0.10071290
H       -0.09212256      -0.08575913       3.26864581        0       0.28821416       0.28368432      -0.53712105     -12.78071325       0.53778045      -0.16423244      -0.40650857       0.09599987
H       -0.01461041       0.01934664      -3.01581406        0       0.18879592      -0.17327167       1.14594245     -12.77925362       2.06988388       0.85981510       2.14981101       0.05764455
H        1.80174984      -0.61356856      -2.45160501        0      -0.31143960      -0.15751071      -0.64184407     -12.82875497      -1.72536847       0.18031036      -0.13742117       0.08183157
H        0.09780713      -1.47008794      -2.61910540        0       0.14514503       0.55653821       0.21553017     -12.87975926       1.47419509       0.00205122       2.26588116       0.05641049
12
Properties=species:S:1:pos:R:3:molID:I:1:momenta:R:3:energies:R:1:forces:R:3:charge:R:1 Nmols=1 Comp=DMC(1) energy=-587.5895142002435 free_energy=-587.5895142002435 dipole="0.2974147266373837 0.07592851956760742 -0.12166260344645603" pbc="F F F"
C       -0.27893395       0.09710702      -0.11949298        0       0.85722253      -0.79672281      -1.59221465     -58.64283568       2.22033699      -2.04137190       1.83020255       0.46942021
O       -1.42110446       0.34487211      -0.29699832        0      -0.93236573      -0.31359925       1.92276644    -111.77503543       0.30092788       0.51328114      -1.08221978      -0.35236997
O        0.21641317      -0.21276345       1.19693707        0       0.12691281       1.15199477       1.61067644    -111.13507122       0.50696731       0.41970334      -2.85877830      -0.28193942
O        0.79995020      -0.26345980      -0.92055845        0       1.28678161      -1.65598061      -1.04340760    -110.88535676       0.89237221       0.96228308       5.46087967      -0.26443740
C       -0.04192367       0.55211145       2.29552001        0      -0.59470274      -0.93564128      -0.73838146     -59.14109671       2.54379260       0.07857509       3.55719721       0.05636085
C        0.73206167      -0.56995595      -2.23181981        0      -0.61464161       0.92717495      -0.34824468     -58.68465559      -3.46397762       1.91789124      -2.18347352       0.04692149
H        0.63472237       1.51480764       2.49088824        0      -0.88920576       0.53012581       0.00636142     -13.17321894      -1.18512302      -1.58069437      -1.04054873       0.02874466
H       -1.05452055       0.78408966       2.46784031        0       0.18858482       0.35290007       0.40065431     -13.08568107      -1.23007081       0.40988277      -0.04899043       0.05942508
H        0.31500058      -0.14392302       3.22028628        0       0.30913373       0.24581135      -0.42976129     -12.85475052      -0.84675657       1.23981587      -1.80314849       0.05241086
H        0.15183100       0.58828864      -2.44662223        0       0.24275372      -0.02501117      -0.25447946     -12.54286881       0.25357985      -3.38084351      -1.58395166       0.03872899
H        1.60869218      -0.52636578      -2.94969079        0      -0.11279438       0.23745273       0.33557560     -12.94307739      -0.59720367      -0.38952914       1.78305008       0.07832948
H        0.16066394      -1.59811487      -2.10366661        0       0.13232100       0.28149544       0.13045494     -12.72586608       0.60515485       1.85100640      -2.03021860       0.06840517
12
Properties=species:S:1:pos:R:3:molID:I:1:momenta:R:3:energies:R:1:forces:R:3:charge:R:1 Nmols=1 Comp=DMC(1) energy=-587.7527167920383 free_energy=-587.7527167920383 dipole="0.3096746375928846 0.06061282602060958 -0.14257061416175332" pbc="F F F"
C       -0.21446796       0.00384775      -0.10509949        0       0.33093731      -0.69325508       1.91787244     -59.06516790      -1.23202573       0.00435116       2.29416436       0.46715052
O       -1.38928429       0.31015781      -0.26103626        0       2.44279439      -0.70186831      -0.84477910    -112.35484942       2.61557738      -0.39604555      -1.39200567      -0.42048543
O        0.22562020      -0.15857955       1.18562291        0       0.41364688      -0.04386722      -2.16816365    -111.14276262       0.64584069      -0.08061442      -0.42037278      -0.29487539
O        0.86751541      -0.33661949      -0.86452756        0      -0.40752597      -0.55999100       1.62289149    -111.32238774      -4.30414848       1.33359958      -1.21336295      -0.24970339
C       -0.12576384       0.60326335       2.34993284        0      -1.62744841       1.18414376       1.52988513     -58.99911561       0.91423882      -0.05307305       0.19744899       0.04023388
C        0.63986705      -0.44390248      -2.31413171        0      -0.47547456       1.06295826      -1.15739135     -58.24089197       1.35930229      -2.53026475      -2.24805107       0.02946533
H        0.04479998       1.70534135       2.09902946        0      -0.04522766       0.03181788      -0.38596157     -13.03571611       0.19234572      -1.29223462       0.67059617       0.05665917
H       -1.20411774       0.55403509       2.69301051        0      -0.03837589      -0.95457342       0.18876696     -13.00223901       1.20960822      -0.52174967      -0.38969501       0.06694113
H        0.69156299       0.08621509       3.08000987        0       0.11389627       0.52458806       0.10488325     -12.61454736      -2.15450869       1.71257376      -1.07604683       0.08601085
H       -0.03190861       0.15752325      -3.22663909        0      -0.58718336       0.17053900      -0.63220580     -12.58954072       2.10179674       0.02344244       3.36810818       0.07491167
H        1.83585122      -0.57482286      -2.41529442        0      -0.14156621      -0.27972859       0.35113273     -12.39491201      -2.66765419       0.46871769      -1.39274771       0.09749691
H        0.11456621      -1.46661031      -2.66562260        0       0.02152721       0.25923667      -0.52693052     -12.99058634       1.31962723       1.33129744       1.60196432       0.04619473
12
Properties=species:S:1:pos:R:3:molID:I:1:momenta:R:3:energies:R:1:forces:R:3:charge:R:1 Nmols=1 Comp=DMC(1) energy=-588.2821489117874 free_energy=-588.2821489117874 dipole="0.2205284482748583 0.13661899797856306 0.1712189320972091" pbc="F F F"
C       -0.20940763      -0.06832308       0.03597743        0       0.30163528      -0.85866667       0.05709125     -59.72175887       1.57688247      -0.00822320      -3.62890705       0.52108092
O       -1.25055429       0.27268193      -0.32580483        0       0.11804553      -0.08074429      -1.45060943    -112.46344762      -4.85523421       1.48816097      -0.82453227      -0.46980248
O        0.29232797      -0.18207704       1.15422763        0       2.71359328      -0.94377336       2.67299556    -111.06423900       2.42970482       0.50815032       6.84530912      -0.28606423
O        0.76484534      -0.34597606      -0.83156162        0      -1.09288317       0.17838859      -0.79408074    -111.47473916       2.05011641      -1.04948691      -3.49108521      -0.34549421
C       -0.21940766       0.63929193       2.40694812        0      -0.22480550      -0.35491254      -0.70704717     -58.45739797       1.51430209       1.12602533      -2.51943876       0.01032497
C        0.61612801      -0.39323641      -2.42142449        0      -0.45658976      -0.33420623      -0.22783553     -58.49157141       1.51079646      -2.46089510       2.10469818       0.02100365
H       -0.35356366       1.68664431       1.93103400        0      -0.87248327       0.11664602      -0.10049999     -12.82538893      -0.42427539      -1.52451065       0.81767604       0.07959991
H       -1.14304547       0.08090249       2.56378342        0      -0.18545257       0.06492651      -0.09641194     -12.59492043       0.35011749       0.65270502       0.93687372       0.11587199
H        0.63361876       0.87201766       3.22080651        0      -0.03870018       0.56421345       0.33272162     -12.61537163      -1.89572294      -1.55139396      -1.81057633       0.09998581
H        0.22717840       0.55041019      -2.66136528        0       0.18342631       1.17737989       0.94239493     -12.83303963      -0.97719650       0.67016621      -0.48832157       0.09737351
H        1.68592243      -0.48349892      -2.94122976        0       0.07931573       0.41836064      -0.81328370     -12.86422835      -1.95782029       0.09543558       1.71150748       0.07441180
H        0.03897649      -1.37483572      -2.65961013        0      -0.52510168       0.05238799       0.18456514     -12.87604591       0.67832959       2.05386640       0.34679665       0.08170835
12
Properties=species:S:1:pos:R:3:molID:I:1:momenta:R:3:energies:R:1:forces:R:3:charge:R:1 Nmols=1 Comp=DMC(1) energy=-588.2106043149316 free_energy=-588.2106043149316 dipole="0.20204850551046877 0.09969929342830752 -0.14701965326291358" pbc="F F F"
C       -0.16525103      -0.13347287       0.00063057        0       0.16130063      -0.32554891      -0.78106607     -58.40072923      -1.84880413       1.98870103      -1.39188631       0.44520394
O       -1.31720708       0.28132622      -0.36562691        0      -0.30754496      -0.48857276       0.19983272    -112.42858249       4.63596349      -1.95535825       2.64965487      -0.42128282
O        0.43571825      -0.21247258       1.36752287        0       1.15595672      -0.41257494       1.83586871    -111.35624754      -1.82554546       0.72772235      -4.29464737      -0.26281695
O        0.78704402      -0.33813824      -0.94895353        0       0.82246170      -0.89403496      -1.05227696    -110.71060068       1.13118384      -2.24020515       3.18107809      -0.23771461
C       -0.22571168       0.61689231       2.25788278        0      -0.80168406      -0.15509062      -1.95442637     -59.18348919      -0.94561138      -0.33937134       3.14463057       0.04412535
C        0.55088592      -0.32287160      -2.35477848        0      -2.10202113       2.77390766       1.77702007     -59.02923310      -1.35358017      -1.78513020       0.75891037       0.00581539
H       -0.79345260       1.46454309       1.95453483        0       0.12895877       0.18488201      -0.35524469     -13.07976201       0.36668993       0.95177692      -1.32811962       0.05831560
H       -1.04047978       0.11641530       2.81401518        0       0.35385575      -0.42497252       0.64313739     -13.05449008      -0.02884691      -0.93315730      -0.27858392       0.03711165
H        0.39274833       0.92103046       3.14685655        0       0.36990548      -0.09174747       0.21421956     -12.98743084       0.38398178      -0.17739944      -1.28867844       0.05855539
H        0.24444135       0.60900593      -2.30314453        0      -0.00417858      -0.34225075      -0.30382379     -12.29705048      -2.26976779       5.39948175      -1.46378493       0.09972257
H        1.38644446      -0.27388305      -3.01402571        0       0.49010871      -0.13154351       0.04077464     -12.78249765       0.90011607      -1.16617173       0.24446255       0.09491071
H       -0.34859662      -0.89112916      -2.65601261        0      -0.26711902       0.30754677      -0.26401520     -12.90049103       0.85422072      -0.47088863       0.06696415       0.07805378
12
Properties=species:S:1:pos:R:3:molID:I:1:momenta:R:3:energies:R:1:forces:R:3:charge:R:1 Nmols=1 Comp=DMC(1) energy=-588.6671004197476 free_energy=-588.6671004197476 dipole="0.023026423553169213 0.18978135947124355 -0.22257305807930883" pbc="F F F"
C       -0.15494279      -0.10679011      -0.04653340        0       1.47033166       0.05982663       0.01276190     -58.69472635       4.38238673      -1.56833527       2.41782188       0.46667941
O       -1.25652265       0.18024210      -0.30234025        0       1.18477606      -1.41329483       1.07505342    -111.88353624      -1.31407278       0.61118710       0.33366094      -0.36162766
O        0.47733919      -0.21429915       1.32337712        0      -0.23723266       0.37030905      -2.77241753    -111.90747568      -2.04229361       0.07723758      -4.27455598      -0.36063984
O        0.82114731      -0.40528916      -0.93481726        0       0.20677823      -1.21866209       1.55513237    -111.22003296      -2.40295814       1.60695156       1.28824794      -0.25712222
C       -0.27471814       0.61305244       2.24062705        0       0.00775323      -0.56047984       0.45488490     -59.19754956       3.05511747      -1.84314133      -0.65722730       0.01093088
C        0.39308692      -0.09884781      -2.28387212        0      -1.84738230       3.23923779      -0.06480364     -58.98347756      -1.27797721      -1.48503313       0.71022487       0.00130515
H       -0.65299911       1.31344277       1.60163927        0      -0.29210241      -0.24972191      -0.15570282     -12.92638624      -2.01613950       1.95094415      -0.57394143       0.07801555
H       -0.80837307      -0.07916775       2.80387787        0      -0.29084458       0.04809159      -0.41417805     -12.93489542      -1.60184324      -0.37540041       1.01602684       0.07885501
H        0.57675555       0.98169941       2.75020177        0       0.18447201       0.47958239      -0.50558971     -12.79936402       0.40950165       0.92795460       1.37605387       0.07947197
H       -0.00488989       0.84846587      -2.61782386        0       0.17243330      -0.54842357       0.29642894     -12.92247132       0.93748221       0.61718346       0.68040436       0.08352741
H        1.21945677      -0.59082941      -2.61555076        0      -0.23916844      -0.13260736       0.09785246     -12.26658456       2.63922082      -0.06541985      -2.71955527       0.11922702
H       -0.39680092      -0.77217047      -2.60430684        0      -0.31981410      -0.07385783       0.42057776     -12.93060052      -0.76842440      -0.45412847       0.40283927       0.06137731
12
Properties=species:S:1:pos:R:3:molID:I:1:momenta:R:3:energies:R:1:forces:R:3:charge:R:1 Nmols=1 Comp=DMC(1) energy=-588.229893084643 free_energy=-588.229893084643 dipole="0.18044041461644614 0.2886057353932046 0.07000355834565532" pbc="F F F"
C       -0.03808685      -0.11548672       0.01337331        0      -0.22444811       0.16549800       0.84270485     -59.64001188      -5.42202212       0.50465766      -3.43459378       0.51194177
O       -1.20079159       0.10820902      -0.24958917        0       1.25314358      -1.17594976       1.18626201    -113.08788837      -0.60704224       0.64801541       0.15388888      -0.53726792
O        0.42707082      -0.19191565       1.12410659        0      -0.14850475       0.24733872      -1.43453202    -110.51674960       3.20293906       0.47975817       8.13604724      -0.22492317
O        0.81994201      -0.41828447      -0.85673942        0       0.58639767       0.93457092      -0.90132678    -111.11961843       2.57478539       0.60361996      -5.46390922      -0.27093028
C       -0.19919071       0.53505801       2.20891065        0      -0.78720485      -1.24484472      -2.03847861     -58.75929324      -4.94836533      -0.61401899      -2.51280321      -0.00186816
C        0.29342781      -0.01485505      -2.21631238        0      -0.64526485       0.51149283       1.09746862     -58.59759388       0.61866713       0.51302134      -0.74020965       0.02157139
H       -1.07432047       1.14441149       1.77044626        0       0.11993316      -0.28199601       0.30659207     -12.60253038       1.18694966       0.48755628      -1.07216837       0.06952331
H       -1.05047783       0.02324159       2.68024293        0       0.63463589       0.08149035       0.22486442     -12.55723062       1.59133754      -1.38625906       1.26054936       0.09566888
H        0.31426721       1.27927294       2.67934439        0      -0.41019479       0.12716046       0.30631644     -12.81223879       2.00554339       0.77073330       1.39822074       0.09489478
H        0.15980897       1.13097182      -2.44024233        0       0.49019132      -0.43493143       0.64411101     -12.94211002      -0.04805884      -1.83868960       1.44398120       0.06441937
H        0.93580373      -0.25986118      -3.10566939        0      -0.72126362       0.59929351      -0.39960762     -12.93699317      -0.10278072      -0.62549137       1.44012487       0.07339436
H       -0.64776215      -0.56646739      -2.22552844        0      -0.14742066       0.47087714       0.16562561     -12.65763470      -0.05195292       0.45709690      -0.60912807       0.10357566
12
Properties=species:S:1:pos:R:3:molID:I:1:momenta:R:3:energies:R:1:forces:R:3:charge:R:1 Nmols=1 Comp=DMC(1) energy=-588.2347397152117 free_energy=-588.2347397152117 dipole="0.07189632452571434 0.1803310824290956 -0.028394568789143718" pbc="F F F"
C       -0.06317033      -0.13767238      -0.02908893        0       1.35743636      -0.86440301      -0.74314130     -58.81756076       2.08662436      -1.08688451       1.34900778       0.47370934
O       -1.22594854       0.08909491      -0.18486242        0      -2.88146064       0.18322972       0.92892380    -112.29672585       0.18901588       0.04387298      -0.39430261      -0.41649847
O        0.51396145      -0.15449302       1.22456037        0       2.60130604       0.91384372       2.54787387    -111.20928377       0.50327466      -0.88609259      -4.46667504      -0.26902602
O        0.88742977      -0.37051659      -0.98921021        0       1.57633379      -0.32317610      -2.29725621    -111.25247035      -2.20223053      -1.67217532       1.51490267      -0.25945634
C       -0.32156396       0.42528096       2.11506316        0      -2.10754320      -1.46315661       0.39757503     -59.06746122      -0.80112842      -0.43601607       2.77091889       0.02094451
C        0.23546949       0.04321843      -2.16074903        0      -0.66264639       1.82314952       0.10133399     -58.79898402       0.25176946       3.88826166      -1.11032592       0.03214649
H       -1.09611638       1.09631661       1.54304505        0      -0.07017042      -0.26109300      -0.18643850     -12.75271705       0.69117601      -1.72945429       1.92239769       0.08732360
H       -0.39103273      -0.42065868       2.94613691        0       0.14467570      -0.02239794      -0.47632050     -12.66920368      -1.94875290       1.23559792      -1.56832660       0.06467287
H        0.36635641       0.97476496       2.68168008        0       0.34374528      -0.31929001      -0.27758112     -12.76444322       0.81510843       2.23988754       0.90747724       0.06767852
H        0.41543581       1.18797161      -1.83606128        0      -0.37405709      -0.10344467      -0.33668703     -12.70226049      -0.88639669      -1.20786176      -2.61113386       0.04885461
H        0.65580191      -0.23034287      -3.14895262        0       0.15794025      -0.32837647       0.41188944     -13.01321088       0.44957244       0.06046127       1.09390190       0.07183686
H       -0.86871583      -0.07113558      -2.26825821        0      -0.08555965       0.76511485      -0.07017145     -12.89041843       0.85196729      -0.44959684       0.59215786       0.07781403
12
Properties=species:S:1:pos:R:3:molID:I:1:momenta:R:3:energies:R:1:forces:R:3:charge:R:1 Nmols=1 Comp=DMC(1) energy=-587.8845652948581 free_energy=-587.8845652948581 dipole="0.031588481399762953 0.20036893486400345 -0.06534880325240454" pbc="F F F"
C        0.00370966      -0.20120845      -0.02740656        0      -0.16484000      -0.45509975       0.81004467     -58.41401564      -2.83510800       1.46368506       1.27995714       0.44381570
O       -1.29234728       0.07076144      -0.12619540        0       2.22707144      -0.73138995       0.86135644    -112.75672126       7.11500888      -1.82935697       0.16981535      -0.46023365
O        0.66040637      -0.14116350       1.22539592        0       0.65912513      -0.14789625      -2.36942042    -111.45044631      -3.87303241       0.59074549      -1.63466661      -0.26356058
O        0.89817019      -0.39216673      -1.06436269        0      -2.11123069       0.33423592      -0.25835772    -111.43726835      -4.10716960       2.86610761       1.53375538      -0.26002528
C       -0.34060710       0.35331808       2.22462227        0       1.15023415      -0.96398838       1.64188760     -58.69206172      -2.35922028      -2.88502729      -1.34312071       0.01285114
C        0.16202925       0.24119171      -2.22329642        0      -0.89978119       2.15714957      -0.97731677     -58.60245243       0.94281650      -1.29018036      -1.55109855       0.00708806
H       -1.26310308       0.81180870       1.68953643        0      -0.15088393      -0.02392505       0.08539764     -12.70369617       1.74675150      -0.30115387       0.55984895       0.09387049
H       -0.94545264      -0.62455748       2.71837734        0      -0.42278725       0.22792818       0.10833177     -12.81946067       2.16149317       2.32814074      -0.62376242       0.06229529
H        0.14630916       1.07282627       2.81718320        0      -0.54822484       0.17209682       0.57904525     -12.85737232       0.44645127       0.13056022       0.98861230       0.09357707
H        0.26072930       1.38318476      -2.59404535        0       0.42256562      -0.14551508      -0.58701856     -12.88246683       0.34357258      -2.42210225       1.68344622       0.07274683
H        0.68536983      -0.45976330      -2.91162690        0      -0.34515782       0.11854092      -0.16975411     -12.59852675      -0.84011706       0.98590442      -0.81207890       0.09301623
H       -0.93256609      -0.01728858      -2.11946949        0       0.18390939      -0.54213696       0.27580422     -12.67007684       1.25855343       0.36267721      -0.25070815       0.10455871
12
Properties=species:S:1:pos:R:3:molID:I:1:momenta:R:3:energies:R:1:forces:R:3:charge:R:1 Nmols=1 Comp=DMC(1) energy=-588.1574592251943 free_energy=-588.1574592251943 dipole="-0.01911460922324971 0.15592851484496292 0.11401141948318069" pbc="F F F"
C       -0.01212435      -0.20764636       0.03960626        0       1.97023800      -0.23065276       0.33460614     -59.53719290       5.09407342       0.07043906      -1.82342154       0.52519709
O       -1.10296645       0.02610113      -0.08177242        0      -0.18462493      -0.62732645       0.83656781    -112.02910445     -10.33980054       1.37563739      -0.50490321      -0.46261298
O        0.62494350      -0.14926008       1.12383912        0      -0.76849194      -0.21208348      -0.53627968    -111.23570763       1.85966528       0.19947623       5.19268923      -0.27912962
O        0.72146572      -0.30060646      -1.04887862        0      -2.13774273       2.41919743      -0.51142025    -111.41830290       2.85704457      -0.39078771      -2.57335865      -0.32074948
C       -0.29662095       0.27070817       2.29928688        0       0.66518032      -0.78302398       0.02090823     -58.47665231      -1.40464421      -2.02740862      -2.16070525       0.00967459
C        0.13442862       0.27449572      -2.30683595        0       0.30871122      -1.13403225      -1.00810726     -58.71513253       0.98414210      -0.22528436       0.25215261       0.01342516
H       -0.97950165       0.91739879       1.67666826        0      -0.05592174       0.55863204       0.18690035     -12.59898751      -0.18155648      -0.79574081       1.20575352       0.10241981
H       -0.79287547      -0.72800093       2.72568009        0       0.23706835      -0.76769890       0.16347791     -12.87719205       0.81476168       2.08205241      -1.13353465       0.07198303
H        0.00140597       0.85635355       3.13943503        0       0.52641135      -0.36733529      -0.14565065     -12.86046498       1.47299984       0.01321723      -0.06280049       0.09219159
H        0.73420550       1.28452718      -2.51719669        0       0.06058272       0.17674231       0.71724350     -12.83514873      -2.06821372      -1.57300942       0.93479953       0.07229701
H        0.32107706      -0.27413504      -3.26501604        0      -0.06731988       0.05522671      -0.05431252     -13.02155029       0.44789573      -0.40040960       1.22915458       0.06387998
H       -0.93721477       0.05587373      -2.07743262        0      -0.55409074       0.91235461      -0.00393360     -12.55202295       0.46363231       1.67181819      -0.55582565       0.11142380
12
Properties=species:S:1:pos:R:3:molID:I:1:momenta:R:3:energies:R:1:forces:R:3:charge:R:1 Nmols=1 Comp=DMC(1) energy=-587.9850437903121 free_energy=-587.9850437903121 dipole="0.28170756195154917 0.28724604480285504 -0.15678041142291196" pbc="F F F"
C        0.03357168      -0.18759165      -0.02699820        0      -2.54646186       1.23939483      -1.63278360     -59.15192379      -5.69011758       0.90967542       1.82526766       0.45784203
O       -1.22216256      -0.03278637      -0.02723712        0      -1.19831623      -1.35318106       0.55008086    -112.77102522       2.78326545      -0.35528191      -0.28316144      -0.50265034
O        0.60700416      -0.19783959       1.22003747        0       0.70257498      -0.66621453       1.50488743    -111.25132418       1.05951349      -0.20847884      -4.13612113      -0.27251398
O        0.69112217      -0.18053252      -1.13825620        0       0.51794253       0.45298025      -0.91113065    -110.69668320       1.80531524      -1.99199430       2.00910117      -0.21607285
C       -0.20161788       0.20132078       2.26820821        0       2.72559680      -0.21482557       0.19157577     -59.13776569       1.66443145      -1.62207629       2.39160809       0.03740414
C        0.12642451       0.27524732      -2.30308915        0      -0.80761726       1.42437713       0.67749378     -58.85220922       1.10675408       2.51311245      -1.98611643       0.00929551
H       -1.01920423       0.88447115       2.12715474        0      -0.18310403      -0.14849012       0.38131890     -12.98440161       0.09838244       0.28878578      -0.48922080       0.08160666
H       -0.60071538      -0.78633353       2.68797989        0      -0.37417220      -0.59728186       0.42353451     -12.92995692       0.19963812       1.39582152       0.09602582       0.05938941
H        0.71832040       0.58794334       2.84144705        0       0.27113345      -0.40848468      -0.34255357     -12.60853931      -2.03870391      -0.09929538       0.54207633       0.08132072
H        0.54584515       1.31018623      -2.20536648        0       0.38187168       0.58776297      -0.63460074     -12.27637279       2.24207093      -0.03278023      -1.71457116       0.07997308
H        0.44712419      -0.40619994      -3.17670916        0       0.23486324      -0.17522455       0.28237772     -12.86876813      -0.70586312       1.48379073       1.37900415       0.08204779
H       -0.74503125       0.90653005      -2.37553319        0       0.27568890      -0.14081281      -0.49020041     -12.45607373      -2.52468658      -2.28127895       0.36610775       0.10235784
12
Properties=species:S:1:pos:R:3:molID:I:1:momenta:R:3:energies:R:1:forces:R:3:charge:R:1 Nmols=1 Comp=DMC(1) energy=-588.0453714819323 free_energy=-588.0453714819323 dipole="-0.017290487196279403 0.20936094438595015 -0.21625266207595029" pbc="F F F"
C       -0.15419695      -0.07080840      -0.05560661        0       0.50489648       0.78638823       0.44009122     -58.79833749       4.83526974      -1.50819409       1.63837600       0.47295111
O       -1.31791827      -0.09296706      -0.01100722        0      -2.78728184      -0.35446217      -0.17562798    -111.86082426      -1.77969870       0.59828426      -0.45029634      -0.36293616
O        0.65938843      -0.23405095       1.15835504        0       0.31435728      -0.61298056      -3.02240004    -111.53183149      -1.61144704       0.78088453      -1.86339207      -0.30811536
O        0.71552164      -0.13512188      -1.12173740        0      -0.22319896       1.15111349       1.41074639    -111.39959603      -1.96477215       1.81409656       1.71546253      -0.27309090
C       -0.03650835       0.08457326       2.36443911        0       2.09116169      -1.91157418       2.27469329     -59.09303021       2.00571062       2.52450256      -0.39141220       0.03125834
C        0.16731982       0.46088562      -2.33455477        0       0.35267043       1.74292009      -1.31413487     -58.70034490      -4.16270112      -8.14403605       0.39031225      -0.00481853
H       -0.87105651       0.75830251       2.17940210        0       0.18994096       0.34215605      -0.21806297     -13.06740284       0.43612481       0.86067754      -0.11963610       0.05756406
H       -0.50875408      -0.66250531       2.82621791        0       0.10738070      -0.20449321       0.20848082     -12.93282165      -1.66467764      -3.95818640       1.22857057       0.06281354
H        0.69430103       0.40443702       3.18885159        0      -0.45287455       0.08204909       0.61609787     -12.98614063      -0.60684478       0.32357463      -1.61437308       0.05971964
H        0.81253800       1.00677324      -2.83097423        0      -0.15724724      -0.32730858      -0.36750832     -12.51755561       2.02833665       4.02090661      -1.27502604       0.11656850
H        0.36601221      -0.48000005      -3.01464229        0      -0.29614264      -0.28845861      -0.22322353     -12.61435444      -0.14733480       0.58867704       0.19837635       0.05575849
H       -1.04002935       0.21766444      -2.39805206        0       0.35633770      -0.40534963       0.37084812     -12.54313194       2.63203440       2.09881280       0.54303814       0.09232728
12
Properties=species:S:1:pos:R:3:molID:I:1:momenta:R:3:energies:R:1:forces:R:3:charge:R:1 Nmols=1 Comp=DMC(1) energy=-588.2322644402005 free_energy=-588.2322644402005 dipole="0.16294665819672915 0.28248081265426495 0.10485057642184772" pbc="F F F"
C       -0.13789148      -0.06764160      -0.00083654        0      -1.32247676      -0.67762311       0.35731654     -59.44532819      -2.48723411      -0.82833322      -0.45600895       0.48562120
O       -1.38224538      -0.06500669      -0.04635585        0       1.09507179       1.12060642      -0.57775502    -112.96241256       3.37878600       0.53537617       0.30668726      -0.47520822
O        0.66470490      -0.29640270       1.01877576        0       0.09631079      -0.97999767      -0.15128137    -111.30478627      -0.35287675       0.58942272       3.60324137      -0.29638959
O        0.69514884      -0.01504464      -1.02416279        0      -0.10697916       2.95057404       0.89154804    -111.34181991       0.11337426       1.19144124      -2.89513922      -0.29700266
C        0.05422240      -0.00474042       2.50600636        0      -0.41077132      -1.20846649       0.77002316     -58.42799822       1.63826042       2.00286973      -3.45184188      -0.00462187
C        0.16988484       0.38136234      -2.46184765        0       0.08077202      -1.60962104      -1.26968522     -58.40699993      -3.23222248       1.70515015       5.77447694      -0.00114742
H       -0.51214308       0.83024540       2.15742743        0       0.07252027      -0.03115885       0.11996273     -12.69336727      -1.32898437       0.38933554       0.33447645       0.09579238
H       -0.47183504      -0.86039686       2.70915956        0       0.30966323       0.32088658      -0.36047543     -12.72312473      -1.01051090      -1.62145084       0.77808691       0.10995318
H        0.68459109       0.46198536       3.29148128        0       0.78080074      -0.23262239      -0.34806438     -12.76405742       0.51324133      -1.19229542      -0.98972963       0.09722640
H        0.60040610       1.29483789      -2.87264416        0      -0.62838292      -0.16128982       0.64484881     -12.91970482       0.36279330      -0.66840695       0.39602357       0.09150678
H        0.16360749      -0.51737924      -2.96483351        0       0.03505226      -0.50385460      -0.20551352     -12.80200296      -0.01749131      -1.23690576      -1.23385979       0.10357207
H       -0.98723145       0.70179083      -1.96164585        0      -0.00158094       1.01256693       0.12907566     -12.44066216       2.42286460      -0.86620337      -2.16641303       0.09069774
12
Properties=species:S:1:pos:R:3:molID:I:1:momenta:R:3:energies:R:1:forces:R:3:charge:R:1 Nmols=1 Comp=DMC(1) energy=-588.7922694211989 free_energy=-588.7922694211989 dipole="0.19450284119326927 0.009112154032720836 0.08789188369237191" pbc="F F F"
C       -0.16888106      -0.13092894       0.02368056        0       1.85303833      -0.31579614       0.17066131     -59.38243365      -0.02156845       1.43200985      -1.55936463       0.48218081
O       -1.35316425       0.01804878      -0.05227211        0      -0.72886612       1.97121069       0.37536744    -112.48342371      -0.18819757      -0.53850378       0.69048515      -0.44175121
O        0.62145371      -0.33384440       1.05423583        0      -2.30207712      -0.09203468       0.69876083    -111.37265373      -1.36434452      -0.03891351      -0.27417470      -0.28723401
O        0.64896173       0.15966599      -1.02155357        0      -0.83846838       2.07186176      -0.55673596    -111.23637478      -0.51108713      -1.06726661      -1.16751472      -0.28068389
C        0.12496627      -0.07968841       2.41839139        0       1.67562400      -1.64532500      -2.48024736     -58.98991100       1.81665073      -1.62802656      -1.13224744       0.00343915
C        0.12285749       0.27438789      -2.37462797        0      -0.11144958      -0.20256652       2.32073466     -58.72716391       2.47246270       6.47040146       1.70739004       0.03030221
H       -0.51156628       0.81859412       2.47295763        0       0.32450259      -0.24183101       0.45487412     -12.93892704       0.74483125      -0.44335045       0.11245543       0.08699860
H       -0.38444011      -0.99898200       2.79662342        0       0.37339102       0.30936452       0.09987412     -12.96254710       0.09541700       0.79537443      -0.27487908       0.07231243
H        1.22565344      -0.14943227       2.64241294        0       0.00373511      -0.61242367      -0.20732970     -12.11948201      -1.32052658       1.02139069       2.04439988       0.12853852
H        0.85118783       1.23179906      -2.78605803        0       0.48966349      -0.89706821      -0.11271996     -12.71776997      -1.09486935      -2.70574012       0.56450540       0.05151407
H        0.12057102      -0.49316851      -3.01163718        0      -0.00175253      -0.17845940      -0.09038145     -12.92763697       0.57605896      -3.13519961      -1.64215087       0.08312673
H       -0.77804445       0.83531763      -2.51563022        0      -0.73734083      -0.16693233      -0.67285805     -12.93394555      -1.20482703      -0.16217579       0.93109553       0.07125658
12
Properties=species:S:1:pos:R:3:molID:I:1:momenta:R:3:energies:R:1:forces:R:3:charge:R:1 Nmols=1 Comp=DMC(1) energy=-588.4008047411276 free_energy=-588.4008047411276 dipole="0.3676718986130525 -0.07134096649310068 -0.06906960286255473" pbc="F F F"
C       -0.14769014      -0.06686741      -0.01133746        0      -1.82115287       1.68453049      -0.60737255     -59.38202590      -3.05299126       1.73116199      -0.07362701       0.48903854
O       -1.34372061       0.09117955       0.00486135        0       1.26545721       0.34343148       0.88515017    -112.51020318      -0.44715774      -0.39656371      -0.24997071      -0.46751546
O        0.53783005      -0.36818282       1.03578199        0       0.09569997      -1.32711561      -2.24363224    -110.28055711       4.31076614      -1.32337294      -2.31262585      -0.20840913
O        0.60133033       0.25290200      -1.04046900        0      -0.49205086       1.22144149       0.36180196    -110.93358350       2.27126959       0.28504592       1.18318165      -0.25651347
C        0.29060867      -0.23049675       2.30425654        0       1.62175130      -1.73812621       1.98901691     -59.10340755      -2.21645270       1.39150588       6.57870789       0.06915142
C        0.08492965       0.28812876      -2.31924138        0      -0.04664080      -0.85004432      -1.12728593     -58.92175086       8.21736777      -2.98889892      -1.42151859       0.02725635
H       -0.10560896       0.80763965       2.61157894        0       0.35945495       0.07290191      -0.26221448     -13.07773314      -0.16272208      -0.93696846      -0.84159550       0.03186367
H       -0.51190153      -0.97029617       2.72330501        0      -0.26730300       0.11973296      -0.44582811     -13.04873653       1.22072313       0.90989616      -0.60966357       0.03906351
H        1.18572069      -0.21328853       3.07996380        0      -0.08912684       0.10877201       0.21557319     -12.90333392      -0.90943631      -0.86369708      -2.10598132       0.05414732
H        0.98382156       0.55160241      -3.06100495        0      -0.10358208       0.17353696      -0.24360294     -12.79440377      -1.96853696       0.48603498       1.59899026       0.06937953
H       -0.00420811      -0.72761005      -2.56151478        0      -0.41610567      -0.07671315       1.02105332     -12.83205757      -0.40413333      -2.29692971      -0.83026433       0.05650792
H       -0.78311796       0.62196043      -2.43121338        0      -0.10640131       0.26765200       0.45734070     -12.61301171      -6.85869625       4.00278591      -0.91563293       0.09602979
12
Properties=species:S:1:pos:R:3:molID:I:1:momenta:R:3:energies:R:1:forces:R:3:charge:R:1 Nmols=1 Comp=DMC(1) energy=-588.7444348579268 free_energy=-588.7444348579268 dipole="0.17299744689131005 0.07478286630709738 -0.05428403737748607" pbc="F F F"
C       -0.21425876       0.07805601      -0.05771454        0       1.10002500       1.30364293      -0.09706799     -59.25921780      -0.04842041      -1.78610801       3.37504668       0.48869155
O       -1.41298490       0.10153598       0.04726060        0      -2.76810534      -0.04076761      -0.00280057    -112.55864300       1.09486105       0.34227945      -0.42248136      -0.43408748
O        0.65976754      -0.45872537       0.87399635        0       2.45250074      -1.03619143      -1.54083692    -111.60956857      -1.43415336       0.67657732       3.35780736      -0.34031532
O        0.61616908       0.36428371      -0.98559174        0       0.79750373       2.55220704       0.88106033    -111.05149001       0.49430610      -0.12514785      -2.51806127      -0.26375404
C        0.33476080      -0.26598776       2.42490791        0      -0.09920231      -0.17987120      -0.24815110     -58.60510470       0.81612756      -2.94488971      -1.86324970       0.01103309
C        0.04246774       0.15578386      -2.32917712        0      -2.05501258      -1.19420617       1.33786316     -58.96551094       0.84245558       4.41816307       1.36774734       0.00151953
H        0.04044589       0.75400507       2.41963933        0       0.06916455      -0.08921504       0.09328969     -12.87450584       0.28087256       0.61186315       0.78681563       0.09221961
H       -0.53181785      -0.93528666       2.74495818        0      -0.06379016      -0.16894114       0.31619038     -12.94838777       0.94764399       0.81044641      -0.77644133       0.07403777
H        1.27750417      -0.69579649       3.00423393        0       0.02649950      -0.70691021      -0.04227227     -12.75840213      -1.76734353       1.50123083      -1.41191398       0.08927330
H        0.85752244       0.66586424      -2.94576484        0       0.06155593      -0.28806648       0.03276004     -12.57623841      -1.12045216      -1.81999664       0.11764439       0.10436896
H       -0.38608761      -0.80542271      -2.29342508        0      -0.30649367       0.23129639      -0.47532287     -12.78530114       0.13826140      -0.97518249      -1.06106117       0.09959054
H       -0.74608538       0.94440629      -2.24514483        0       0.78535461      -0.38297707      -0.25471188     -12.75206455      -0.24415877      -0.70923554      -0.95185259       0.07742249
12
Properties=species:S:1:pos:R:3:molID:I:1:momenta:R:3:energies:R:1:forces:R:3:charge:R:1 Nmols=1 Comp=DMC(1) energy=-588.363091835502 free_energy=-588.363091835502 dipole="0.13100989430395207 -0.10487807836691075 0.14338953215222325" pbc="F F F"
C       -0.23117370       0.11949741       0.05304842        0      -1.22806922      -0.21399420       1.49491846     -58.70214489       0.81085427      -1.27460534      -1.14365722       0.46634926
O       -1.45742648       0.11032960       0.03707556        0       1.33228104       0.17210013       0.55872137    -112.26388008       3.77603857       0.26523257       0.60279901      -0.38601720
O        0.71819091      -0.44621719       0.88067453        0      -0.39410816       1.41733793       1.16625571    -111.48202641      -3.23068849       1.91634110       1.78284492      -0.29624451
O        0.64516797       0.46383427      -0.99907057        0      -0.88740381       0.38103813      -1.14263878    -111.22629328      -3.91718992      -1.18253518      -1.07717171      -0.26068351
C        0.35292513      -0.35583984       2.36475994        0       0.70724020      -1.41422331      -1.48266140     -58.96471614       1.89883231      -1.32035674      -2.40681609       0.00160996
C       -0.01480798       0.12892137      -2.24241331        0      -0.76434317       0.80859703      -0.22349818     -58.53629187       0.60791754       1.27578211      -4.50834103       0.04243128
H        0.31696938       0.71603699       2.63450686        0       0.63334285      -0.14361973       0.20414866     -12.96453942       0.09145773      -0.88947626       0.06741193       0.08142602
H       -0.58533381      -0.91019379       2.45824488        0      -0.42310990      -0.00963410      -0.49852990     -12.88226441       0.25907973       0.32760948       0.37146572       0.08784834
H        1.27718627      -0.95667540       2.65124684        0       0.47736887       0.01519254      -0.20238821     -12.55821185      -1.40005934       1.00504882       0.74076161       0.10465657
H        0.82028390      -0.00743636      -3.07096705        0       0.12644387      -0.45700844      -0.02657572     -12.83740465      -0.73856779       1.34205573       1.55285544       0.05613152
H       -0.45230282      -0.83116269      -2.55473105        0       0.18028024      -0.05142324       0.36504546     -12.96652722      -0.42069380      -0.21220267       2.13142982       0.06134207
H       -0.85302217       0.90455687      -2.76092551        0       0.24007719      -0.50436273      -0.21279746     -12.97879163       2.26301920      -1.25289362       1.88641759       0.04115020
12
Properties=species:S:1:pos:R:3:molID:I:1:momenta:R:3:energies:R:1:forces:R:3:charge:R:1 Nmols=1 Comp=DMC(1) energy=-588.5971478791589 free_energy=-588.5971478791589 dipole="0.3467259627497108 -0.19254176068478596 0.13928960110568742" pbc="F F F"
C       -0.18858984       0.06536361       0.07624505        0       1.75485959      -0.65835962      -0.84872163     -59.12822031      -2.02617056       1.15513055      -2.09638369       0.47742070
O       -1.40127043       0.11089414       0.09356713        0       1.05404516      -0.14946703       1.23437412    -112.45229220       1.15494492      -0.49698029       0.69587285      -0.43851770
O        0.67949520      -0.29787925       0.95658849        0       0.01179763       2.82761378      -0.11456369    -110.19025747       2.26352959      -0.00347034      -5.12145432      -0.18504192
O        0.50393108       0.45003640      -1.03211156        0      -3.47392880       0.11495611       0.60466203    -111.20263685       1.26624523       1.61120961       0.97965404      -0.29535317
C        0.42651432      -0.46354416       2.18911840        0       0.83903644      -0.21860547      -0.89967202     -59.32613208       0.11636004       1.42452176       6.83619001       0.05036652
C        0.00271051       0.10797717      -2.29481611        0       0.11825480      -1.45702696      -0.03631065     -58.93129935      -1.14045968      -0.61905130      -0.95427834       0.03888260
H        0.44144577       0.51594095       2.71410710        0      -0.47395428      -0.08586334      -0.02797634     -12.93845966       0.19269422       0.72451120       0.05825479       0.02988910
H       -0.54760837      -0.72684444       2.48951347        0      -0.09328811      -0.02053248       0.48856167     -12.96330854      -1.31133787      -1.60922635       0.01439388       0.05991691
H        1.26755457      -0.92977425       2.73076955        0      -0.11031272      -0.60496090       0.04038898     -12.86103804      -0.52802823      -0.80658906      -0.50369309       0.06830595
H        0.90858755       0.02500217      -2.98294356        0       0.43885554      -0.08530642      -0.41698640     -12.90895169      -1.26203923      -0.18331605       0.90610467       0.07168816
H       -0.42443867      -0.85439436      -1.87246130        0      -0.13710513       0.40628813      -0.09120820     -12.69151063      -0.41195273       0.35674296      -2.68428284       0.07323577
H       -0.80023446       0.84203597      -2.87236834        0       0.07173989      -0.06873578       0.06745214     -13.00304107       1.68621430      -1.55348270       1.86962202       0.04920710
12
Properties=species:S:1:pos:R:3:molID:I:1:momenta:R:3:energies:R:1:forces:R:3:charge:R:1 Nmols=1 Comp=DMC(1) energy=-588.6440903850051 free_energy=-588.6440903850051 dipole="0.20984147359276342 -0.3598333804238263 -0.08932457946460144" pbc="F F F"
C       -0.19398478       0.07840926       0.00278273        0      -0.88428411       0.47271910      -0.46549170     -59.51854579       1.80563282       0.32444199       2.27256274       0.50935614
O       -1.33508962       0.08989187       0.18879076        0       0.09974474      -0.53789788       2.18758896    -112.19900642      -4.25898321      -0.89118764       0.98505747      -0.43535469
O        0.76533057      -0.13359226       0.90348399        0       2.12008435       2.32272941       0.03792987    -111.46418989       0.21253674      -0.52813282       1.92625051      -0.31237585
O        0.38591672       0.50874751      -1.03351540        0       0.01225101       0.75442717      -2.05388155    -110.85424360       2.40382880      -1.05541931      -4.75994890      -0.26100195
C        0.43455584      -0.47343461       2.31885163        0      -0.71359195      -0.42509768       2.43149204     -58.98761878      -1.65807283      -2.49996211      -3.39227739       0.00887398
C       -0.00094434      -0.06286160      -2.33043080        0      -1.46197538      -2.06291392      -0.09791003     -58.56555646      -4.11138733       2.23858502      -1.16308269       0.03492634
H        0.34670030       0.40808294       2.86771318        0       0.15416352      -0.24637005       0.23693111     -12.87565378       0.20582650       0.75396023       0.98821985       0.09510207
H       -0.50643082      -1.11670247       2.28294736        0       0.10909090      -0.22363295      -0.66564504     -12.91393164       0.05159959       1.50155148       0.04289378       0.06348548
H        1.06760789      -1.31312038       2.49919869        0       0.25303609       0.01092145      -0.31913103     -12.71149724       1.50902733       0.41336555       0.90296240       0.09200056
H        0.75377580      -0.27360137      -3.05145094        0       0.29740845      -0.34359837      -0.44550440     -12.86545579       1.15786482       0.48633449       0.26133911       0.08547503
H       -0.71660391      -0.98163587      -2.50499703        0       0.11833741      -0.00380061      -0.54912946     -12.97999371       1.09851572       1.47287465       1.67690095       0.05893652
H       -0.70175507       0.87726621      -2.73609478        0      -0.10426503       0.28251433      -0.29724878     -12.70839729       1.58361105      -2.21641153       0.25912217       0.06057637
12
Properties=species:S:1:pos:R:3:molID:I:1:momenta:R:3:energies:R:1:forces:R:3:charge:R:1 Nmols=1 Comp=DMC(1) energy=-588.4202220774372 free_energy=-588.4202220774372 dipole="0.2276293439577889 -0.30003019033347644 0.028835565098782164" pbc="F F F"
C       -0.19678187       0.15414453       0.00468711        0       0.39896524       1.26965842       0.43284087     -58.89023760      -0.39075325       0.18314191       1.59488615       0.46287081
O       -1.39642484       0.05094930       0.32121924        0      -0.50686267      -0.77795890       1.68155116    -112.46670812       3.95240486       0.12977503      -1.66274599      -0.41633891
O        0.85774621      -0.00885934       0.90730602        0      -0.06631487       1.83876932       0.55590939    -111.63328561      -3.05161940      -0.27344922       1.55125616      -0.32015044
O        0.41874328       0.47983552      -1.20248191        0       0.11461698      -1.13343639      -2.24671696    -111.23373639      -1.89910418      -0.65176968       2.74452493      -0.26724797
C        0.38623769      -0.57416215       2.39266060        0       0.99727034      -0.85453175      -0.22851622     -58.46483040       2.33964510       0.73838739      -3.51868789      -0.01501065
C       -0.08325342      -0.08958713      -2.38281648        0      -0.35880692      -0.20563062      -1.09596737     -59.05315405      -1.23464979      -0.92698947      -0.85405821       0.03777140
H        0.43811648       0.13805018       3.18519317        0      -0.24680341      -0.23865899       0.02928316     -12.76187947      -1.27634583       1.30681290      -0.23765847       0.09661570
H       -0.51751585      -1.07933165       2.05474098        0      -0.14675132      -0.14789045       0.11046306     -12.60561795       0.37811870      -0.08473096       0.99490884       0.12489161
H        1.35110434      -1.02663124       2.64648072        0      -0.28163036       0.27471165       0.22292395     -12.58617572      -0.57593995      -1.31475023      -0.59246988       0.10329529
H        0.84837371      -0.31144348      -2.82278589        0       0.14090491      -0.10246918       0.46396657     -12.68366999       1.07415874      -0.89983994      -1.16816954       0.08172913
H       -0.69874979      -1.13800962      -2.27404318        0       0.11596920      -0.26332614       0.85897005     -13.08008255       1.03179554       2.77321713      -0.05976105       0.04823669
H       -0.51700505       0.68846528      -3.09238921        0      -0.16055711       0.34076303      -0.78470765     -12.96084422      -0.34771056      -0.97980486       1.20797496       0.06333734
12
Properties=species:S:1:pos:R:3:molID:I:1:momenta:R:3:energies:R:1:forces:R:3:charge:R:1 Nmols=1 Comp=DMC(1) energy=-588.7830586789015 free_energy=-588.7830586789015 dipole="0.07668551232572206 -0.32273082123003527 -0.03386011722560494" pbc="F F F"
C       -0.20344625       0.25123329       0.05423672        0      -0.00697364       0.63359705       0.75318906     -58.89013340       2.69805918      -1.64762835      -0.53052012       0.47954091
O       -1.30424529       0.00481408       0.39159562        0       2.41504638      -0.99202674      -0.00043753    -111.91578586      -1.89122196       0.30266674      -1.09080932      -0.38428601
O        0.79523047       0.07724602       0.98699693        0      -1.12864074       0.97089476       1.93804632    -111.19168710       0.04262484      -0.72898403      -0.03008834      -0.27832619
O        0.37532155       0.44739716      -1.24228043        0      -0.59792615       0.68025056       1.22798243    -111.34513447       0.25861276       1.70901968       2.72734231      -0.30133863
C        0.43921356      -0.58785073       2.28503211        0      -0.02296097       0.32254699      -2.16451110     -58.86009027      -0.04205028       0.06794775      -0.82558755       0.01747546
C       -0.06884150      -0.10474021      -2.45970030        0       1.32731051      -0.95719695      -0.35039954     -59.13500937      -0.77697142      -2.85460459       2.07401737       0.04004308
H        0.03695536       0.21572123       2.90311494        0      -0.09457232       0.03939874      -0.50407278     -12.81631786       0.84419054      -0.17261638       0.47294889       0.08585051
H       -0.35967369      -1.30918523       2.27068539        0       0.15511115      -0.30001242      -0.09752797     -12.91352513      -1.12576656      -0.00867653      -1.17651320       0.06954805
H        1.19206857      -1.33945323       2.66339038        0      -0.30317061       0.02626665      -0.17524614     -12.76135671       0.36388372       1.97718840      -0.42555319       0.08648868
H        0.76359157      -0.56765210      -2.96071651        0      -0.60777249       0.03593699      -0.28780778     -12.91245235       0.75163175       0.37034831      -0.23373408       0.07038500
H       -0.59586199      -0.97971345      -2.03388742        0      -0.45264298      -0.49690165      -0.16535649     -12.96374747      -0.68852848      -0.24876901      -0.94749078       0.04910313
H       -0.70151573       0.37463579      -3.16224541        0      -0.68280813       0.03724600      -0.17385847     -13.07781869      -0.43446409       1.23410801      -0.01401200       0.06551600
12
Properties=species:S:1:pos:R:3:molID:I:1:momenta:R:3:energies:R:1:forces:R:3:charge:R:1 Nmols=1 Comp=DMC(1) energy=-588.72121975485 free_energy=-588.72121975485 dipole="0.3418605803914685 -0.3259773886355165 -0.1493175548800131" pbc="F F F"
C       -0.09895523       0.22248706       0.08019059        0       1.48204252      -1.20995075      -0.13200075     -59.21410773      -4.34807033      -1.14959104      -1.24806659       0.47925713
O       -1.27789219      -0.05998595       0.34438722        0      -0.89584447      -1.27483777      -1.00718562    -112.55642489       1.52128070       0.42889196      -1.58799752      -0.47266468
O        0.74378218       0.17043313       1.05380925        0       0.42311147       2.26548855      -0.14504690    -110.77149066       2.49485772       1.45461439      -1.99719343      -0.23584973
O        0.35437806       0.50980392      -1.17031343        0       0.14621777       0.90608956       0.86074673    -111.48435620       0.87219322      -0.92298102       0.49397731      -0.30641512
C        0.37984525      -0.61431273       2.11428212        0      -1.11549311      -1.11880435      -1.03081222     -59.08459811       4.17270384       3.52814974       4.08672419       0.03119906
C       -0.08617385      -0.22653157      -2.39430167        0      -0.49084903      -0.92860062       1.19343171     -58.85424938       3.11205583       3.95902341       1.15382309       0.01685100
H        0.15272260       0.12710439       2.97243837        0       0.11520456      -0.34684955       0.13120347     -12.84843235      -0.64390911      -1.19081762      -0.88954471       0.06053791
H       -0.33413607      -1.27688048       1.88388942        0      -0.05555867       0.19870506      -0.52854080     -12.78964512      -2.24794969      -2.44095162      -0.33428474       0.09880215
H        1.43343028      -0.89577560       2.42373170        0       0.37322172       0.70202276      -0.30157456     -12.66668528      -1.23097009      -1.03792017       0.00971333       0.07673207
H        0.73928504      -0.38988148      -3.07923438        0      -0.05281216       0.48220271       0.49374044     -12.88563262       0.55708936       0.01187324       0.49238280       0.07979981
H       -0.60500463      -1.03797595      -2.24681304        0      -0.03499316      -0.30969340       0.20685353     -12.86990455      -2.46974084      -4.41514805       1.38210434       0.08383047
H       -0.69202710       0.48235972      -2.81505634        0       0.10575255       0.63422779       0.25918496     -12.69569286      -1.78954061       1.77485677      -1.56163808       0.08791993
12
Properties=species:S:1:pos:R:3:molID:I:1:momenta:R:3:energies:R:1:forces:R:3:charge:R:1 Nmols=1 Comp=DMC(1) energy=-589.1029820451278 free_energy=-589.1029820451278 dipole="0.15419758058061853 -0.44015040828450547 -0.18419794353299818" pbc="F F F"
C       -0.15717385       0.12238365       0.04962995        0      -1.23312909      -0.17985061      -0.16085633     -59.16860277       2.14487176       3.16404832       0.33130222       0.49182222
O       -1.28677210      -0.13888644       0.25097227        0       0.49401074      -1.34546620      -2.25028422    -112.26904761      -1.33617713      -1.12641884      -0.11138097      -0.41972434
O        0.80224654       0.34291470       1.00471518        0      -0.00317370       2.44434955      -0.70755979    -111.63054347      -2.16198972      -2.20294209       1.27528246      -0.31339555
O        0.37577303       0.52916507      -1.08812457        0      -0.02400495      -0.43660506       1.46693120    -111.25818214      -0.53509536      -1.06265640      -0.52338839      -0.28593254
C        0.40707215      -0.65475194       2.08367296        0       1.02294030      -0.70967223      -0.15157633     -58.82433832       1.32263484       1.94751583       0.16135317       0.00985248
C       -0.13749685      -0.19854119      -2.25493414        0       0.01541079       1.33472043       1.97438324     -58.97608503       5.13513606       2.54299881       0.50823743       0.01055390
H       -0.16788677      -0.21482437       2.97137446        0      -0.41154100      -0.14832431      -0.28897481     -12.92640000       1.11186850      -0.28850247      -1.31147401       0.07795699
H       -0.22149731      -1.30331520       1.53360535        0       0.67549168       0.05803358       0.19860482     -12.82193594      -0.56949139      -1.15117501       0.33571084       0.08506833
H        1.38599278      -1.09653428       2.31019042        0      -0.24190280      -0.83517450       0.13767616     -12.85089339      -0.53211331       0.08110255       0.49468465       0.08433070
H        0.87777289      -0.28675885      -2.73564817        0      -0.32904091      -0.12768692       0.15464028     -12.64819688      -1.16682488      -0.58898394      -0.37119182       0.08728831
H       -0.58664478      -1.06128627      -2.02524684        0       0.30175295       0.41375287      -0.01306469     -12.94168013      -1.51588206      -3.04564793       0.89951019       0.08280893
H       -0.70540813       0.46121311      -2.77380316        0      -0.26681401      -0.46807658      -0.35991953     -12.78707637      -1.89693729       1.73066118      -1.68864576       0.08937056
12
Properties=species:S:1:pos:R:3:molID:I:1:momenta:R:3:energies:R:1:forces:R:3:charge:R:1 Nmols=1 Comp=DMC(1) energy=-588.5560341352426 free_energy=-588.5560341352426 dipole="0.2918520037965619 -0.3090123127935895 0.026067134122041157" pbc="F F F"
C       -0.16141922       0.21205965       0.07228284        0      -0.83764680       1.51749688       0.53489577     -59.13208229      -2.99748003      -0.95450415       0.49622050       0.48272568
O       -1.32435920      -0.21908427       0.12275358        0      -0.31369925      -1.16238248      -1.65364600    -112.74769982       2.78650025       0.80621170       1.10612832      -0.46678629
O        0.77954243       0.39132034       0.98941482        0      -0.59688340      -0.70946293       1.02813576    -111.35556130       0.04408260      -2.63680508       2.16801237      -0.28075401
O        0.37487934       0.48594545      -1.06325545        0       0.81370388      -0.51668373      -0.45893077    -110.30809006       2.81356907       2.87011069      -0.03037190      -0.20107382
C        0.55883250      -0.69862591       2.04579577        0       1.36506018      -0.98003351      -1.36994823     -58.54932059      -3.91039241       0.96260531      -1.45977019       0.01458867
C       -0.14496040      -0.09111724      -2.11961986        0      -1.54992479      -0.29346948       0.42775727     -59.12467672      -1.52710653      -4.90971867      -2.97053089       0.04718350
H       -0.22887335      -0.14665554       2.62747951        0       0.20712379       0.19586345      -0.15198044     -12.71124649       0.74188923      -0.95590111       0.27307999       0.08648637
H       -0.01102911      -1.58203301       1.55133459        0       0.40248524       0.42177722       0.26044671     -12.94374036       0.74511852       1.40046676       0.36159677       0.06266865
H        1.25706164      -1.21209917       2.64344601        0       0.37033366       0.57885186       0.30458515     -12.79564316       1.63084233       0.75949995       0.14420091       0.09811196
H        0.60333436      -0.50342950      -2.86491010        0      -0.36774907       0.28158948       0.12983512     -13.00249850      -0.32346948       0.96692882       0.83901720       0.05521042
H       -0.64085117      -1.03502502      -1.70864852        0       0.25267149       0.58025965       0.26632652     -12.92055592       0.33712099       0.14221085      -0.57808158       0.03928102
H       -0.99319764       0.26574333      -2.65851206        0       0.25452508       0.08619359       0.68252312     -12.96491892      -0.34067454       1.54889492      -0.34950150       0.06235787
12
Properties=species:S:1:pos:R:3:molID:I:1:momenta:R:3:energies:R:1:forces:R:3:charge:R:1 Nmols=1 Comp=DMC(1) energy=-588.310932739469 free_energy=-588.310932739469 dipole="0.09175359609416481 -0.15534242718567676 0.07081035084946394" pbc="F F F"
C       -0.25398012       0.29556522       0.12524873        0       0.10987364       0.77713942       0.25374088     -58.81727166       3.92516286      -0.95914102      -2.11450690       0.47407241
O       -1.29828870      -0.24830803       0.05415276        0       0.29672225       0.05332949      -0.77078907    -111.96966769      -1.27971903       0.25025815       1.75546212      -0.38491807
O        0.73630241       0.29699086       1.06035776        0      -1.06179615      -1.85165275       0.65080508    -111.04159221      -1.34034297       1.76203839      -2.53259449      -0.26051251
O        0.47384910       0.51738687      -1.04988198        0       1.46465975       1.38872127       1.26181137    -111.48048764      -2.40396759      -0.76748163      -0.24208046      -0.30543740
C        0.65419274      -0.68252699       1.97338773        0       1.10436345       0.67553976       0.11247920     -59.09963227      -1.64339089      -1.45496557       2.66049152       0.04309894
C       -0.29070588      -0.14185461      -2.12292663        0      -2.13401189       0.09515950      -0.43732069     -58.78943014       0.85233968       1.22208693      -1.12970845       0.02830466
H       -0.06397094      -0.30094063       2.73918715        0      -0.28568160      -0.59996382       0.18291853     -13.00381024      -0.25351582      -0.83846015       0.03597629       0.04123549
H        0.19172948      -1.76424417       1.56424279        0       0.75444888      -0.11734358       0.20822839     -13.02040753       1.79655576       2.48004756       0.99674840       0.04538419
H        1.61242672      -0.48277968       2.48190409        0       0.04825845       0.16613269      -0.79805305     -12.53735731       0.02589641      -1.69438400      -0.19132939       0.09651214
H        0.52680801      -0.20291852      -2.98395589        0      -0.33346986       0.04856636       0.02800165     -12.82018363      -1.82260451      -0.29759641       1.65310556       0.07534317
H       -0.75243966      -1.16385448      -1.70822765        0      -0.17176379      -0.07489401      -0.92318293     -12.81324296       1.04532536       2.18939563      -1.34899170       0.08143371
H       -1.09246564       0.65620609      -2.45084114        0       0.20839687      -0.56073433       0.23136065     -12.91784946       1.09826074      -1.89179787       0.45742750       0.06548328
12
Properties=species:S:1:pos:R:3:molID:I:1:momenta:R:3:energies:R:1:forces:R:3:charge:R:1 Nmols=1 Comp=DMC(1) energy=-588.0306918318554 free_energy=-588.0306918318554 dipole="0.23818033835044186 -0.285874462886346 -0.12323253067177498" pbc="F F F"
C       -0.19599769       0.25231481       0.04240520        0       0.55259537      -1.86716390      -1.19872607     -59.32652230      -0.65282645      -2.01165617       1.43749189       0.49391259
O       -1.30466710      -0.21511202       0.04598033        0       0.37976779       1.04992745       0.19240325    -112.48940247       0.05119306       0.40312696       0.70505208      -0.44934727
O        0.65470023       0.27990323       1.07132247        0      -1.34369366       1.21330605      -0.35067884    -111.13853940       0.05466455       0.39236679       1.01078529      -0.27558814
O        0.46806508       0.55459162      -1.02619438        0      -1.65532413      -0.53696324      -0.55038105    -111.21273441      -1.85621426      -1.74880273      -3.52509438      -0.26116584
C        0.72537443      -0.69128905       2.09191571        0       1.91935662      -1.06681147       1.77485017     -58.83710545       3.33061367      -3.39730049      -1.70935989       0.04101428
C       -0.34915431      -0.10166525      -2.16094969        0      -0.41601360       1.55427899      -0.98242221     -58.11944123      -0.59962352       2.14936739      -2.74429603       0.03434016
H        0.04555176      -0.82825430       2.89149173        0       0.38047429      -0.34456645       0.28148494     -13.00768198      -0.66333506       0.76412536       0.38128832       0.07717210
H        0.92895600      -1.82952039       1.68251328        0       0.14762862      -0.28135587      -0.14257792     -13.00978752      -1.63021422       1.88491744      -0.12291904       0.02335568
H        1.81986961      -0.68413453       2.33520169        0      -0.35098368      -0.01612053       0.49209422     -12.63983156      -0.85202883       1.17883281       1.02160292       0.08101639
H        0.37928305      -0.05970043      -3.05781035        0       0.02145117       0.37897329      -0.13790132     -12.82508766      -1.09187644       0.40707993       1.31370293       0.07605063
H       -0.78572188      -1.18084187      -2.26051153        0       0.11479694      -0.00659761       0.28897979     -12.73462884       1.10658607       1.80017124       1.64542896       0.08827507
H       -1.36027646       0.64206015      -2.38641382        0       0.24994427      -0.07690672       0.33287505     -12.68992902       2.80306142      -1.82222854       0.58631696       0.07096434
12
Properties=species:S:1:pos:R:3:molID:I:1:momenta:R:3:energies:R:1:forces:R:3:charge:R:1 Nmols=1 Comp=DMC(1) energy=-588.0153628246546 free_energy=-588.0153628246546 dipole="0.41009702909865775 -0.3962811263474361 0.07810058254252253" pbc="F F F"
C       -0.15145349       0.07554448       0.03103071        0       0.55850668      -1.78580096       0.35503004     -59.29038119      -1.08519075       1.87572431       0.63521513       0.48148354
O       -1.32510355      -0.17986442       0.10338281        0      -1.49100380      -0.11403406       1.25386521    -112.21696134       0.00950694      -1.22464931       0.26422014      -0.43286663
O        0.61317339       0.34098209       1.09104134        0       0.59534852       0.49142172       1.23831938    -111.69562275       1.41013628      -1.74173550       1.00731545      -0.33820899
O        0.35977285       0.47669888      -1.14687791        0      -0.80616829      -1.24255359      -1.32380401    -111.15492073       3.21941138       0.91123206       3.15022069      -0.28389838
C        0.91813361      -0.81770060       2.16837168        0       2.23313801      -0.21691906       0.89292345     -58.52603996      -2.12205806       2.48928302      -1.99481681       0.00104991
C       -0.35653349       0.06481235      -2.23395936        0      -0.22971144       2.45705435      -0.76062783     -59.04461859      -1.66069260       1.73965155      -0.06034412       0.03011734
H        0.04018941      -0.77416527       2.82805860        0      -0.28494932       0.24775764      -0.36933463     -12.79260657      -0.11818693      -0.36968402      -0.29086727       0.08749579
H        0.82849009      -1.72456211       1.47451145        0       0.10009612      -0.31427978      -0.30957813     -12.68225985       1.23991021       1.04930074       1.71317589       0.10159626
H        1.68076165      -0.27686761       2.79761857        0      -0.33134785       0.12888519      -0.23858271     -12.41691047       0.02204886      -1.50017415      -1.40244506       0.12520618
H        0.35441019       0.39168558      -3.06818215        0      -0.12708676       0.29038198      -0.16694388     -12.76298444      -1.50202877      -1.15098011       0.60283025       0.08561958
H       -0.50939948      -0.96742426      -1.83205919        0       0.07869777      -0.10727312      -0.27933658     -12.65360331      -0.94246478       0.15170788      -2.45669603       0.08363288
H       -1.33077949       0.81651021      -2.12374420        0      -0.29551965       0.16535968      -0.29193031     -12.77845361       1.52960821      -2.22967648      -1.16780827       0.05877250
12
Properties=species:S:1:pos:R:3:molID:I:1:momenta:R:3:energies:R:1:forces:R:3:charge:R:1 Nmols=1 Comp=DMC(1) energy=-588.1159536182342 free_energy=-588.1159536182342 dipole="0.23290493698416487 -0.36066844297841044 -0.12354554512603681" pbc="F F F"
C       -0.18465823      -0.01173837       0.08969979        0      -1.23465988      -0.13769351       1.21454730     -58.75856753       0.47386571       2.92407248      -0.63430872       0.46436216
O       -1.36034429      -0.22981936       0.17166966        0       0.22210298      -1.36751190       1.02884542    -111.86938456       1.15010276      -0.85739908       0.50370722      -0.36895680
O        0.71068251       0.30071218       1.14825153        0       1.78070220      -1.42543782      -0.04609190    -111.64985680      -0.62135897      -1.76503947      -2.82164194      -0.32136278
O        0.36716386       0.43612010      -1.13687270        0       0.53521874      -0.54973454       1.05299853    -111.09219557      -1.38059514      -1.46054353       0.86503022      -0.24222379
C        0.94774314      -0.75728658       2.14929050        0      -0.70227839       2.37919413      -1.03281159     -58.92179010       3.60027323       0.65893144      -2.77410330       0.01447598
C       -0.43685528       0.26179307      -2.29598334        0      -1.27820704       1.60569686      -1.31824890     -58.72484642      -2.22686027      -1.28272733      -3.74704359       0.04452941
H       -0.02600780      -0.85861187       2.44242703        0      -0.02487881      -0.48746536       0.01163239     -12.63373040      -1.66482435      -0.88789254       2.18953379       0.10569639
H        1.41820583      -1.76315727       1.69570791        0       1.00314194      -0.35843531       0.06414974     -13.14737808      -1.13573937       1.97145302       0.52869019       0.04115290
H        1.83374151      -0.22777619       2.63000145        0       0.05291671      -0.50465293      -0.02323513     -12.55292893      -1.67312224      -0.97892471       0.50212534       0.10512726
H        0.06540821       0.51915073      -3.26975945        0       0.22540123       0.34239211      -0.24289394     -12.88887178       0.55658069       0.79420219       1.48810291       0.06498715
H       -0.78703877      -0.76742166      -2.74200565        0      -0.00631637       0.14683893      -0.73914037     -12.94953153       1.25391799       0.16348853       2.17006916       0.03835059
H       -1.51066110       0.66446251      -2.49111188        0      -0.57314331       0.35680935       0.03024845     -12.92687191       1.66775996       0.72037900       1.72983873       0.05386153
12
Properties=species:S:1:pos:R:3:molID:I:1:momenta:R:3:energies:R:1:forces:R:3:charge:R:1 Nmols=1 Comp=DMC(1) energy=-587.4961276685525 free_energy=-587.4961276685525 dipole="0.24231277365475995 -0.07239480435642415 -0.04090944158837633" pbc="F F F"
C       -0.20123923       0.08366557       0.15502024        0       0.33462611       1.40829135      -0.40917625     -59.10679659      -0.95594294      -1.18252000      -2.31109285       0.47284616
O       -1.35284394      -0.31348963       0.25258286        0       0.61734470      -0.98164207       1.45241717    -112.44056842       2.13364521       0.86659941       0.44551970      -0.42711949
O        0.78663215       0.18819060       1.05584712        0       0.51807504      -1.83088914      -2.28223498    -110.70774454      -1.09580216       1.85665364      -1.25057651      -0.22037550
O        0.35440979       0.36517336      -1.10294311        0      -1.11626680      -1.38627370       0.08779521    -111.88447250      -1.46785594      -0.31730642       1.03641444      -0.37627506
C        0.95973375      -0.66912750       2.08793992        0       0.51964940      -0.62940475       0.97886759     -58.84258319      -0.26990777       1.18772586       5.22458669       0.03803341
C       -0.57846128       0.37203903      -2.47710521        0      -0.60434409       2.00568367      -1.07169353     -58.52556958       3.95481617      -0.33390661       4.33281083      -0.02802914
H        0.28938610      -1.20605637       2.71213874        0       0.43984279       0.39414929      -0.16420946     -12.87543449      -3.11440567      -0.14259618      -0.63512514       0.05628361
H        1.51531893      -1.41289755       1.78634819        0      -0.03313148      -0.06415605      -0.22192802     -12.73610371       3.59520976      -4.09728917      -2.11884096       0.06402018
H        1.48414412      -0.36497493       3.09324367        0      -0.72560464       0.58162175       0.36486199     -12.83324542       0.19068545       1.47300158      -2.04253812       0.04883798
H        0.24534515       0.97728948      -2.82537979        0      -0.09375897       0.27196953       0.39849699     -12.31697934      -0.29974434      -0.40391912      -1.75018163       0.13272420
H       -0.63096190      -0.71427531      -2.57207101        0      -0.03087162      -0.09131180       0.28735528     -12.61933400      -0.54952444       0.81727535      -0.69615275       0.12148255
H       -1.26719055       1.01327036      -2.03512696        0       0.17443957       0.32196192       0.57944799     -12.60729588      -2.12117332       0.27628167      -0.23482370       0.11757111
